43
Properties=species:S:1:pos:R:3 Converted=T from=T SDF=T charge=0.0 spin=1.0 pbc="F F F"
O       -0.69230000      -0.15490000       0.40680000
O        2.15000000       2.75990000       0.32220000
O        0.39830000       1.79460000      -0.83390000
O       -1.45540000      -2.31040000       0.14070000
N        3.19980000      -0.34560000      -0.81030000
C        3.09080000       0.12400000       0.58700000
C        2.57930000      -1.68110000      -0.75680000
C        1.61550000       0.53310000       0.82540000
C        3.47450000      -1.10440000       1.42230000
C        3.12640000      -2.30200000       0.53330000
C        1.05630000      -1.44970000      -0.68820000
C        0.64220000      -0.62780000       0.54290000
C        4.57760000      -0.37740000      -1.29420000
C        1.29510000       1.74880000      -0.00270000
C       -1.64630000      -1.10610000       0.20950000
C        1.95650000       3.98310000      -0.39510000
C       -2.98920000      -0.48580000       0.08230000
C       -3.93960000      -1.10790000      -0.70130000
C       -3.24550000       0.69320000       0.75190000
C       -5.20130000      -0.52550000      -0.82070000
C       -4.50740000       1.27560000       0.63260000
C       -5.48530000       0.66620000      -0.15380000
H        3.76270000       0.96390000       0.79730000
H        2.80850000      -2.29150000      -1.63770000
H        1.47060000       0.83890000       1.87090000
H        2.95200000      -1.14420000       2.38370000
H        4.55050000      -1.10780000       1.63400000
H        4.03530000      -2.88030000       0.32900000
H        2.41090000      -2.97500000       1.01670000
H        0.71300000      -0.95250000      -1.60540000
H        0.59240000      -2.43990000      -0.69270000
H        0.66160000      -1.28610000       1.42250000
H        4.60330000      -0.73860000      -2.32810000
H        5.24380000      -1.00980000      -0.69870000
H        4.99380000       0.63600000      -1.30590000
H        0.95630000       4.38200000      -0.20100000
H        2.10730000       3.82090000      -1.46670000
H        2.69720000       4.70530000      -0.04170000
H       -3.72930000      -2.03400000      -1.22800000
H       -2.50600000       1.18050000       1.38030000
H       -5.96260000      -0.99940000      -1.43350000
H       -4.72990000       2.20200000       1.15400000
H       -6.46790000       1.11950000      -0.24630000
