43
Properties=species:S:1:pos:R:3:forces:R:3 Converted=T from=T SDF=T charge=0.0 spin=1.0 energy=-27650.76796985165 free_energy=-27650.76796985165 stress="3.4838067020976927e-13 -5.711072788734802e-14 -4.6413118546969244e-14 -5.711072788734802e-14 -2.2781481441199216e-13 -2.1059856899994535e-13 -4.6413118546969244e-14 -2.1059856899994535e-13 2.497076120371547e-14" pbc="F F F"
O       -0.68815867      -0.18161979       0.21568488      -0.00000011      -0.00000009       0.00000003
O        2.10962644       2.73167292       0.60039948       0.00000035       0.00000055      -0.00000006
O        0.72776437       1.92960251      -0.96987845       0.00000017      -0.00000071      -0.00000004
O       -1.46101479      -2.27201669       0.51252626       0.00000055       0.00000002       0.00000033
N        3.30812264      -0.17902174      -0.72978316      -0.00000022      -0.00000055       0.00000031
C        3.02211555       0.01293149       0.69468909      -0.00000031       0.00000017       0.00000027
C        2.64174725      -1.46302928      -0.99886732      -0.00000057      -0.00000045      -0.00000006
C        1.55039178       0.46203805       0.79378979      -0.00000027       0.00000055      -0.00000050
C        3.25907611      -1.36795396       1.35159016       0.00000004      -0.00000003       0.00000011
C        3.02081519      -2.36950232       0.19878999      -0.00000036       0.00000004      -0.00000010
C        1.13433342      -1.20957951      -1.05658092      -0.00000042       0.00000032       0.00000004
C        0.66107597      -0.66561889       0.28489471      -0.00000020       0.00000014       0.00000018
C        4.73403575      -0.21396793      -1.01280664      -0.00000004       0.00000002       0.00000002
C        1.38817737       1.75388254       0.01713220      -0.00000021       0.00000069       0.00000045
C       -1.66117340      -1.09858721       0.31364675       0.00000007      -0.00000008      -0.00000021
C        2.06631700       3.99342300      -0.07340698      -0.00000009       0.00000030      -0.00000002
C       -3.01164662      -0.49044934       0.15104957       0.00000005       0.00000020       0.00000006
C       -4.12365674      -1.29208973       0.38330963       0.00000009       0.00000033       0.00000047
C       -3.17102681       0.83677523      -0.23567203      -0.00000005       0.00000004      -0.00000025
C       -5.39628491      -0.76554442       0.23800416      -0.00000017      -0.00000036      -0.00000033
C       -4.44713390       1.35759255      -0.38475389      -0.00000013       0.00000006       0.00000027
C       -5.55742398       0.55934902      -0.14595759      -0.00000002      -0.00000029      -0.00000007
H        3.66098725       0.79252030       1.10625935       0.00000023       0.00000006       0.00000020
H        2.98481600      -1.86285556      -1.95350567       0.00000045      -0.00000056       0.00000009
H        1.30783745       0.67627657       1.83826613       0.00000047       0.00000009      -0.00000085
H        2.60118500      -1.53510892       2.20496443       0.00000010      -0.00000006       0.00000010
H        4.28181778      -1.43242454       1.72203166       0.00000041      -0.00000003      -0.00000018
H        3.92517137      -2.93808041      -0.01631165      -0.00000025       0.00000033      -0.00000001
H        2.23280271      -3.08978482       0.42059670       0.00000003      -0.00000010       0.00000015
H        0.91936632      -0.47785106      -1.83489770       0.00000038       0.00000000      -0.00000047
H        0.59947948      -2.13524602      -1.27539684      -0.00000006       0.00000035       0.00000003
H        0.67603946      -1.46914113       1.02179874       0.00000000      -0.00000046      -0.00000007
H        4.88396994      -0.38112855      -2.07956311       0.00000024       0.00000005      -0.00000025
H        5.28117700      -0.99485885      -0.46453506      -0.00000006      -0.00000061      -0.00000030
H        5.17482545       0.75052033      -0.75881455      -0.00000020       0.00000051       0.00000019
H        1.04614551       4.37190468      -0.10908358      -0.00000007       0.00000015       0.00000010
H        2.44182501       3.89250705      -1.09033997      -0.00000016      -0.00000017       0.00000014
H        2.69961923       4.65948792       0.50453727      -0.00000035      -0.00000016       0.00000043
H       -3.97091723      -2.32227236       0.67576299      -0.00000011       0.00000021      -0.00000036
H       -2.29793219       1.44600981      -0.42618275       0.00000043      -0.00000058       0.00000008
H       -6.26298945      -1.38682168       0.42161000      -0.00000035      -0.00000013       0.00000025
H       -4.57554616       2.38774193      -0.69014265       0.00000047      -0.00000000      -0.00000022
H       -6.55225895       0.97011880      -0.26225343       0.00000024       0.00000023       0.00000005
