17
Properties=species:S:1:pos:R:3 charge=0.0 spin=1.0 pbc="F F F"
C        0.00000000       0.00000000       0.00000000
C        1.54000000       0.00000000       0.00000000
C        3.08000000       0.00000000       0.00000000
C        4.62000000       0.00000000       0.00000000
C        6.16000000       0.00000000       0.00000000
H       -0.63000000       1.09000000       0.63000000
H       -0.63000000      -1.09000000       0.63000000
H       -0.63000000       0.00000000      -1.09000000
H        1.54000000      -1.09000000       0.43600000
H        1.54000000       1.09000000      -0.43600000
H        3.08000000       1.09000000       0.43600000
H        3.08000000      -1.09000000      -0.43600000
H        4.62000000      -1.09000000       0.43600000
H        4.62000000       1.09000000      -0.43600000
H        6.79000000       1.09000000       0.63000000
H        6.79000000      -1.09000000       0.63000000
H        6.79000000       0.00000000      -1.09000000
