17
Properties=species:S:1:pos:R:3:forces:R:3 charge=0.0 spin=1.0 energy=-5379.692616980943 free_energy=-5379.692616980943 stress="4.7307432328051786e-15 1.199852928292712e-21 1.0670087928907993e-19 1.199852928292712e-21 1.0190020670970876e-13 -2.7802289038867843e-14 1.0670087928907993e-19 -2.7802289038867843e-14 -8.948693728655349e-14" pbc="F F F"
C        1.38026665       0.02600202       0.88087393      -0.00000054      -0.00000037      -0.00000021
C        1.77671605      -0.24606198      -0.56786270      -0.00000008      -0.00000027      -0.00000005
C        3.08000000       0.40577353      -1.03667775       0.00000000      -0.00000045       0.00000033
C        4.38328395      -0.24606198      -0.56786270       0.00000008      -0.00000027      -0.00000005
C        4.77973335       0.02600202       0.88087393       0.00000054      -0.00000037      -0.00000021
H        1.40065049       1.09718311       1.09395565       0.00000012      -0.00000002       0.00000016
H        2.04112790      -0.46506035       1.59286831       0.00000019       0.00000020       0.00000012
H        0.36829654      -0.33131079       1.07752388       0.00000030       0.00000013      -0.00000004
H        1.83687928      -1.32604638      -0.73757468       0.00000003       0.00000040       0.00000005
H        0.97092104       0.11351247      -1.21350972      -0.00000010      -0.00000005      -0.00000004
H        3.08000000       1.46283571      -0.74581933       0.00000000       0.00000043       0.00000007
H        3.08000000       0.39495455      -2.13005226      -0.00000000      -0.00000002      -0.00000037
H        4.32312072      -1.32604638      -0.73757468      -0.00000003       0.00000040       0.00000005
H        5.18907896       0.11351247      -1.21350972       0.00000010      -0.00000005      -0.00000004
H        4.75934951       1.09718311       1.09395565      -0.00000012      -0.00000002       0.00000016
H        4.11887210      -0.46506035       1.59286831      -0.00000019       0.00000020       0.00000012
H        5.79170346      -0.33131079       1.07752388      -0.00000030       0.00000013      -0.00000004
