8
Properties=species:S:1:pos:R:3:forces:R:3 charge=0.0 spin=1.0 energy=-6234.310135282208 free_energy=-6234.310135282208 stress="-6.939293798756764e-13 1.8847731615295725e-13 9.126682154943988e-13 1.8847731615295725e-13 -7.906145414286754e-13 3.624940046217584e-15 9.126682154943988e-13 3.624940046217584e-15 5.238601389790185e-13" pbc="F F F"
C       -3.58361546      -1.03051699      -0.05905694      -0.00000130       0.00000138      -0.00000129
H       -3.21637476      -2.05121842      -0.04863229      -0.00000178       0.00000026      -0.00000111
H       -3.23791101      -0.51390701      -0.95382421       0.00000467      -0.00000123      -0.00000004
H       -4.67295711      -1.02125578      -0.07505451      -0.00000076      -0.00000165       0.00000267
C       -3.09269859      -0.30869368       1.15936592       0.00000059       0.00000043       0.00000230
O       -2.39944071      -0.77080866       2.02476803       0.00000144      -0.00000195      -0.00000155
O       -3.52664554       0.97141888       1.18967358      -0.00000229       0.00000407       0.00000016
H       -3.16974465       1.36482477       1.99965016      -0.00000057      -0.00000131      -0.00000114
