%chk=acoh_freq_anharm.chk
%mem=2GB
%NProcShared=2
# freq (anharm)
# external="/home/mot/mace_gaussian/gm_helper.py"

Gaussian input generated from ASE

0 1
C     -3.58361546    -1.03051699    -0.05905694
H     -3.21637476    -2.05121842    -0.04863229
H     -3.23791101    -0.51390701    -0.95382421
H     -4.67295711    -1.02125578    -0.07505451
C     -3.09269859    -0.30869368     1.15936592
O     -2.39944071    -0.77080866     2.02476803
O     -3.52664554     0.97141888     1.18967358
H     -3.16974465     1.36482477     1.99965016

