 Entering Gaussian System, Link 0=g16
 Input=./acoh_freq_anharm.gjf
 Output=./acoh_freq_anharm.log
 Initial command:
 /usr/local/g16-c.02/g16/l1.exe "/scratch/mot/Gau-419391.inp" -scrdir="/scratch/mot/"
 Entering Link 1 = /usr/local/g16-c.02/g16/l1.exe PID=    419395.
  
 Copyright (c) 1988-2021, Gaussian, Inc.  All Rights Reserved.
  
 This is part of the Gaussian(R) 16 program.  It is based on
 the Gaussian(R) 09 system (copyright 2009, Gaussian, Inc.),
 the Gaussian(R) 03 system (copyright 2003, Gaussian, Inc.),
 the Gaussian(R) 98 system (copyright 1998, Gaussian, Inc.),
 the Gaussian(R) 94 system (copyright 1995, Gaussian, Inc.),
 the Gaussian 92(TM) system (copyright 1992, Gaussian, Inc.),
 the Gaussian 90(TM) system (copyright 1990, Gaussian, Inc.),
 the Gaussian 88(TM) system (copyright 1988, Gaussian, Inc.),
 the Gaussian 86(TM) system (copyright 1986, Carnegie Mellon
 University), and the Gaussian 82(TM) system (copyright 1983,
 Carnegie Mellon University). Gaussian is a federally registered
 trademark of Gaussian, Inc.
  
 This software contains proprietary and confidential information,
 including trade secrets, belonging to Gaussian, Inc.
  
 This software is provided under written license and may be
 used, copied, transmitted, or stored only in accord with that
 written license.
  
 The following legend is applicable only to US Government
 contracts under FAR:
  
                    RESTRICTED RIGHTS LEGEND
  
 Use, reproduction and disclosure by the US Government is
 subject to restrictions as set forth in subparagraphs (a)
 and (c) of the Commercial Computer Software - Restricted
 Rights clause in FAR 52.227-19.
  
 Gaussian, Inc.
 340 Quinnipiac St., Bldg. 40, Wallingford CT 06492
  
  
 ---------------------------------------------------------------
 Warning -- This program may not be used in any manner that
 competes with the business of Gaussian, Inc. or will provide
 assistance to any competitor of Gaussian, Inc.  The licensee
 of this program is prohibited from giving any competitor of
 Gaussian, Inc. access to this program.  By using this program,
 the user acknowledges that Gaussian, Inc. is engaged in the
 business of creating and licensing software in the field of
 computational chemistry and represents and warrants to the
 licensee that it is not a competitor of Gaussian, Inc. and that
 it will not use this program in any manner prohibited above.
 ---------------------------------------------------------------
  

 Cite this work as:
 Gaussian 16, Revision C.02,
 M. J. Frisch, G. W. Trucks, H. B. Schlegel, G. E. Scuseria, 
 M. A. Robb, J. R. Cheeseman, G. Scalmani, V. Barone, 
 G. A. Petersson, H. Nakatsuji, X. Li, M. Caricato, A. V. Marenich, 
 J. Bloino, B. G. Janesko, R. Gomperts, B. Mennucci, H. P. Hratchian, 
 J. V. Ortiz, A. F. Izmaylov, J. L. Sonnenberg, D. Williams-Young, 
 F. Ding, F. Lipparini, F. Egidi, J. Goings, B. Peng, A. Petrone, 
 T. Henderson, D. Ranasinghe, V. G. Zakrzewski, J. Gao, N. Rega, 
 G. Zheng, W. Liang, M. Hada, M. Ehara, K. Toyota, R. Fukuda, 
 J. Hasegawa, M. Ishida, T. Nakajima, Y. Honda, O. Kitao, H. Nakai, 
 T. Vreven, K. Throssell, J. A. Montgomery, Jr., J. E. Peralta, 
 F. Ogliaro, M. J. Bearpark, J. J. Heyd, E. N. Brothers, K. N. Kudin, 
 V. N. Staroverov, T. A. Keith, R. Kobayashi, J. Normand, 
 K. Raghavachari, A. P. Rendell, J. C. Burant, S. S. Iyengar, 
 J. Tomasi, M. Cossi, J. M. Millam, M. Klene, C. Adamo, R. Cammi, 
 J. W. Ochterski, R. L. Martin, K. Morokuma, O. Farkas, 
 J. B. Foresman, and D. J. Fox, Gaussian, Inc., Wallingford CT, 2019.
 
 ******************************************
 Gaussian 16:  ES64L-G16RevC.02  7-Dec-2021
                15-Oct-2025 
 ******************************************
 %chk=acoh_freq_anharm.chk
 %mem=2GB
 %NProcShared=2
 Will use up to    2 processors via shared memory.
 -----------------------------------------------------------------
 # freq (anharm) # external="/home/mot/mace_gaussian/gm_helper.py"
 -----------------------------------------------------------------
 1/10=4,18=10,30=1,38=21,80=1/1,6,3;
 2/12=2,17=6,18=5,40=1/2;
 3/11=9,25=1,30=1,41=9900000,43=2,71=2,140=1/1;
 4/20=17,22=2,24=3,113=1,114=1/2;
 6/7=2,8=2,9=2,10=2/1;
 7/25=1,44=-1,71=2/16;
 1/10=4,18=10,30=1,38=20,80=1/6(3);
 7/8=1,25=202,44=-1,71=1,92=10/16,17;
 1/10=4,18=10,30=1,38=20,80=1/3;
 99//99;
 3/11=9,25=1,30=1,41=9900000,43=2,71=2,140=1/1;
 4/16=2,20=17,22=2,24=3,113=1,114=1/2;
 6/7=2,8=2,9=2,10=2/1;
 7/7=1,25=1,44=-1,71=1/16;
 1/10=4,18=10,30=1,38=20,80=1/6(-4);
 7/8=1,25=202,44=-1,71=1,92=10/16,17;
 1/10=4,18=10,30=1,38=20,80=1/3;
 99//99;
 ---------------------------------
 Gaussian input generated from ASE
 ---------------------------------
 Symbolic Z-matrix:
 Charge =  0 Multiplicity = 1
 C                    -3.58362  -1.03052  -0.05906 
 H                    -3.21637  -2.05122  -0.04863 
 H                    -3.23791  -0.51391  -0.95382 
 H                    -4.67296  -1.02126  -0.07505 
 C                    -3.0927   -0.30869   1.15937 
 O                    -2.39944  -0.77081   2.02477 
 O                    -3.52665   0.97142   1.18967 
 H                    -3.16974   1.36482   1.99965 
 
 Numerical evaluation of third derivatives.
 Nuclear step= 0.010000 Angstroms, electric field step= 0.000333 atomic units, NStep=1.

 GradGradGradGradGradGradGradGradGradGradGradGradGradGradGradGradGradGrad
 Berny optimization.
 Initialization pass.
 Trust Radius=3.00D-01 FncErr=1.00D-07 GrdErr=1.00D-07 EigMax=2.50D+02 EigMin=1.00D-04
 Number of steps in this run=      2 maximum allowed number of steps=      2.
 GradGradGradGradGradGradGradGradGradGradGradGradGradGradGradGradGradGrad

                          Input orientation:                          
 ---------------------------------------------------------------------
 Center     Atomic      Atomic             Coordinates (Angstroms)
 Number     Number       Type             X           Y           Z
 ---------------------------------------------------------------------
      1          6           0       -3.583615   -1.030517   -0.059057
      2          1           0       -3.216375   -2.051218   -0.048632
      3          1           0       -3.237911   -0.513907   -0.953824
      4          1           0       -4.672957   -1.021256   -0.075055
      5          6           0       -3.092699   -0.308694    1.159366
      6          8           0       -2.399441   -0.770809    2.024768
      7          8           0       -3.526646    0.971419    1.189674
      8          1           0       -3.169745    1.364825    1.999650
 ---------------------------------------------------------------------
                    Distance matrix (angstroms):
                    1          2          3          4          5
     1  C    0.000000
     2  H    1.084807   0.000000
     3  H    1.089498   1.784142   0.000000
     4  H    1.089498   1.784139   1.757554   0.000000
     5  C    1.498860   2.123899   2.128091   2.128087   0.000000
     6  O    2.410818   2.570179   3.105003   3.104973   1.201282
     7  O    2.360153   3.281159   2.623765   2.623799   1.352005
     8  H    3.185471   3.983339   3.501041   3.501061   1.874214
                    6          7          8
     6  O    0.000000
     7  O    2.236813   0.000000
     8  H    2.270447   0.968612   0.000000
 Stoichiometry    C2H4O2
 Framework group  C1[X(C2H4O2)]
 Deg. of freedom    18
 Full point group                 C1      NOp   1
 Largest Abelian subgroup         C1      NOp   1
 Largest concise Abelian subgroup C1      NOp   1
                         Standard orientation:                         
 ---------------------------------------------------------------------
 Center     Atomic      Atomic             Coordinates (Angstroms)
 Number     Number       Type             X           Y           Z
 ---------------------------------------------------------------------
      1          6           0        1.389542   -0.122289   -0.000000
      2          1           0        1.916486    0.825939   -0.000043
      3          1           0        1.662090   -0.705830   -0.878751
      4          1           0        1.662096   -0.705750    0.878803
      5          6           0       -0.088661    0.125700   -0.000001
      6          8           0       -0.626336    1.199936    0.000000
      7          8           0       -0.788669   -1.030978   -0.000000
      8          1           0       -1.725915   -0.786482    0.000003
 ---------------------------------------------------------------------
 Rotational constants (GHZ):          11.4308262           9.5096052           5.3625194
 Standard basis: STO-3G (5D, 7F)
 There are    24 symmetry adapted cartesian basis functions of A   symmetry.
 There are    24 symmetry adapted basis functions of A   symmetry.
    24 basis functions,    72 primitive gaussians,    24 cartesian basis functions
    16 alpha electrons       16 beta electrons
       nuclear repulsion energy       121.4616736135 Hartrees.
 NAtoms=    8 NActive=    8 NUniq=    8 SFac= 1.00D+00 NAtFMM=   60 NAOKFM=F Big=F
 Integral buffers will be    131072 words long.
 Raffenetti 1 integral format.
 Two-electron integral symmetry is turned on.
 External calculation of energy, first and second derivatives.
 Running external command "/home/mot/mace_gaussian/gm_helper.py R"
         input file       "/scratch/mot/Gau-419395.EIn"
         output file      "/scratch/mot/Gau-419395.EOu"
         message file     "/scratch/mot/Gau-419395.EMs"
         fchk file        "/scratch/mot/Gau-419395.EFC"
         mat. el file     "/scratch/mot/Gau-419395.EUF"
 Recovered energy= -229.106671704     dipole=      0.235703977756     -0.173193309977      0.000002908132
 Energy=    -229.106672     NIter=   0.
 Dipole moment=       0.235704      -0.173193       0.000003
 Full mass-weighted force constant matrix:
 Low frequencies ---   -0.2400   -0.0637   -0.0002    0.0002    0.0003    0.0758
 Low frequencies ---   72.8820  422.1861  543.7716
 Diagonal vibrational polarizability:
        5.4194638       4.6028229      13.8973310
 Harmonic frequencies (cm**-1), IR intensities (KM/Mole), Raman scattering
 activities (A**4/AMU), depolarization ratios for plane and unpolarized
 incident light, reduced masses (AMU), force constants (mDyne/A),
 and normal coordinates:
                      1                      2                      3
                      A                      A                      A
 Frequencies --     72.8820               422.1861               543.7716
 Red. masses --      1.0856                 2.8685                 1.4816
 Frc consts  --      0.0034                 0.3012                 0.2581
 IR Inten    --      1.0166                 7.1401                35.9621
  Atom  AN      X      Y      Z        X      Y      Z        X      Y      Z
     1   6    -0.00  -0.00   0.00    -0.07  -0.18   0.00    -0.00   0.00   0.01
     2   1     0.00   0.00   0.53     0.37  -0.43  -0.00     0.00   0.00   0.25
     3   1     0.04   0.50  -0.32    -0.34  -0.33   0.01     0.35  -0.01   0.13
     4   1    -0.04  -0.50  -0.32    -0.34  -0.33  -0.01    -0.35   0.01   0.13
     5   6     0.00   0.00   0.01    -0.01   0.15  -0.00    -0.00  -0.00  -0.20
     6   8    -0.00   0.00  -0.05    -0.15   0.08   0.00     0.00   0.00   0.05
     7   8     0.00   0.00   0.05     0.22   0.02  -0.00     0.00  -0.00   0.00
     8   1     0.00  -0.00  -0.01     0.15  -0.25   0.00     0.00  -0.00   0.79
                      4                      5                      6
                      A                      A                      A
 Frequencies --    588.3401               662.9494               875.3851
 Red. masses --      4.2225                 1.5474                 3.7090
 Frc consts  --      0.8611                 0.4007                 1.6746
 IR Inten    --     30.3178                83.2380                 4.7176
  Atom  AN      X      Y      Z        X      Y      Z        X      Y      Z
     1   6    -0.26   0.07  -0.00    -0.00   0.00   0.04     0.31  -0.04   0.00
     2   1    -0.38   0.13  -0.00    -0.00   0.00  -0.14     0.41  -0.09  -0.00
     3   1    -0.20   0.09  -0.00    -0.28   0.05  -0.09     0.36  -0.03   0.00
     4   1    -0.20   0.09   0.00     0.28  -0.05  -0.09     0.36  -0.03  -0.00
     5   6    -0.14  -0.00   0.00    -0.00   0.00   0.16    -0.12   0.11  -0.00
     6   8     0.26   0.18  -0.00     0.00   0.00  -0.07    -0.06   0.18   0.00
     7   8     0.09  -0.20   0.00    -0.00  -0.00  -0.11    -0.13  -0.19   0.00
     8   1    -0.04  -0.71  -0.00     0.00  -0.00   0.87    -0.22  -0.55  -0.00
                      7                      8                      9
                      A                      A                      A
 Frequencies --   1000.0399              1064.0832              1215.9796
 Red. masses --      1.5914                 1.8417                 1.9008
 Frc consts  --      0.9377                 1.2286                 1.6559
 IR Inten    --     26.9622                 6.7436               135.3610
  Atom  AN      X      Y      Z        X      Y      Z        X      Y      Z
     1   6    -0.00   0.17  -0.00     0.00  -0.00  -0.17    -0.04  -0.08   0.00
     2   1     0.63  -0.20  -0.00     0.00   0.00   0.38    -0.36   0.11   0.00
     3   1    -0.45  -0.17   0.08     0.58  -0.18   0.15     0.06   0.12  -0.09
     4   1    -0.45  -0.17  -0.08    -0.58   0.18   0.15     0.06   0.12   0.09
     5   6     0.07   0.02   0.00     0.00   0.00   0.21     0.12   0.09  -0.00
     6   8     0.03  -0.03   0.00    -0.00   0.00  -0.04    -0.05   0.08   0.00
     7   8    -0.06  -0.09   0.00    -0.00  -0.00  -0.03    -0.01  -0.17  -0.00
     8   1     0.01   0.21  -0.00    -0.00  -0.00   0.01     0.22   0.83   0.00
                     10                     11                     12
                      A                      A                      A
 Frequencies --   1339.6945              1412.2896              1460.5459
 Red. masses --      1.6298                 1.7907                 1.0552
 Frc consts  --      1.7235                 2.1043                 1.3262
 IR Inten    --      9.5249                59.3233                22.0709
  Atom  AN      X      Y      Z        X      Y      Z        X      Y      Z
     1   6     0.05  -0.04   0.00     0.18  -0.01   0.00    -0.01  -0.04   0.00
     2   1    -0.41   0.21  -0.00    -0.36   0.29  -0.00     0.37  -0.24   0.00
     3   1    -0.35   0.11  -0.21    -0.52  -0.08  -0.17    -0.08   0.50  -0.37
     4   1    -0.35   0.11   0.21    -0.52  -0.08   0.17    -0.08   0.50   0.37
     5   6     0.17   0.11  -0.00    -0.15  -0.10   0.00    -0.04  -0.01   0.00
     6   8    -0.01  -0.05  -0.00     0.00   0.04  -0.00     0.01  -0.01  -0.00
     7   8    -0.07   0.00   0.00     0.05   0.01  -0.00     0.01   0.00  -0.00
     8   1    -0.20  -0.58  -0.00     0.11   0.31  -0.00     0.02   0.05   0.00
                     13                     14                     15
                      A                      A                      A
 Frequencies --   1466.3969              1843.6640              3080.4373
 Red. masses --      1.0442                 9.4429                 1.0366
 Frc consts  --      1.3229                18.9112                 5.7955
 IR Inten    --     17.3382               229.7426                 2.2085
  Atom  AN      X      Y      Z        X      Y      Z        X      Y      Z
     1   6     0.00  -0.00  -0.05     0.06  -0.04  -0.00    -0.04   0.02  -0.00
     2   1    -0.00   0.00   0.72    -0.19   0.13  -0.00     0.21   0.38  -0.00
     3   1    -0.38  -0.31   0.05     0.09  -0.09   0.05     0.15  -0.34  -0.52
     4   1     0.38   0.31   0.05     0.09  -0.09  -0.05     0.15  -0.34   0.52
     5   6    -0.00  -0.00  -0.03    -0.38   0.59   0.00     0.00   0.00  -0.00
     6   8     0.00   0.00   0.00     0.21  -0.39  -0.00     0.00  -0.00  -0.00
     7   8     0.00   0.00   0.00     0.03  -0.05  -0.00    -0.00   0.00   0.00
     8   1     0.00   0.00   0.01     0.13   0.44  -0.00     0.00  -0.00  -0.00
                     16                     17                     18
                      A                      A                      A
 Frequencies --   3145.6403              3189.7947              3764.1456
 Red. masses --      1.1000                 1.1038                 1.0640
 Frc consts  --      6.4131                 6.6171                 8.8826
 IR Inten    --      0.0061                11.2775                81.9717
  Atom  AN      X      Y      Z        X      Y      Z        X      Y      Z
     1   6     0.00  -0.00  -0.09    -0.02  -0.09   0.00     0.00  -0.00   0.00
     2   1    -0.00  -0.00  -0.02     0.44   0.79  -0.00    -0.00   0.00  -0.00
     3   1    -0.18   0.39   0.56    -0.08   0.15   0.25     0.00   0.00   0.00
     4   1     0.18  -0.39   0.56    -0.08   0.15  -0.25     0.00   0.00  -0.00
     5   6    -0.00  -0.00  -0.00     0.00  -0.00   0.00    -0.00  -0.00   0.00
     6   8     0.00  -0.00  -0.00    -0.00   0.00  -0.00     0.00   0.00   0.00
     7   8    -0.00   0.00   0.00     0.00   0.00   0.00    -0.06   0.01   0.00
     8   1     0.00   0.00   0.00    -0.00   0.00   0.00     0.97  -0.22  -0.00

 -------------------
 - Thermochemistry -
 -------------------
 Temperature   298.150 Kelvin.  Pressure   1.00000 Atm.
 Atom     1 has atomic number  6 and mass  12.00000
 Atom     2 has atomic number  1 and mass   1.00783
 Atom     3 has atomic number  1 and mass   1.00783
 Atom     4 has atomic number  1 and mass   1.00783
 Atom     5 has atomic number  6 and mass  12.00000
 Atom     6 has atomic number  8 and mass  15.99491
 Atom     7 has atomic number  8 and mass  15.99491
 Atom     8 has atomic number  1 and mass   1.00783
 Molecular mass:    60.02113 amu.
 Principal axes and moments of inertia in atomic units:
                           1         2         3
     Eigenvalues --   157.88371 189.78088 336.54726
           X            0.99836   0.05729   0.00000
           Y           -0.05729   0.99836  -0.00000
           Z           -0.00000   0.00000   1.00000
 This molecule is an asymmetric top.
 Rotational symmetry number  1.
 Rotational temperatures (Kelvin)      0.54859     0.45639     0.25736
 Rotational constants (GHZ):          11.43083     9.50961     5.36252
 Zero-point vibrational energy     162382.5 (Joules/Mol)
                                   38.81034 (Kcal/Mol)
 Warning -- explicit consideration of   4 degrees of freedom as
           vibrations may cause significant error
 Vibrational temperatures:    104.86   607.43   782.37   846.49   953.84
          (Kelvin)           1259.48  1438.83  1530.98  1749.52  1927.52
                             2031.97  2101.40  2109.82  2652.62  4432.06
                             4525.87  4589.40  5415.77
 
 Zero-point correction=                           0.061848 (Hartree/Particle)
 Thermal correction to Energy=                    0.066415
 Thermal correction to Enthalpy=                  0.067360
 Thermal correction to Gibbs Free Energy=         0.034675
 Sum of electronic and zero-point Energies=           -229.044823
 Sum of electronic and thermal Energies=              -229.040256
 Sum of electronic and thermal Enthalpies=            -229.039312
 Sum of electronic and thermal Free Energies=         -229.071997
 
                     E (Thermal)             CV                S
                      KCal/Mol        Cal/Mol-Kelvin    Cal/Mol-Kelvin
 Total                   41.676             14.304             68.790
 Electronic               0.000              0.000              0.000
 Translational            0.889              2.981             38.196
 Rotational               0.889              2.981             23.826
 Vibrational             39.899              8.342              6.768
 Vibration     1          0.599              1.967              4.074
 Vibration     2          0.785              1.422              0.885
 Vibration     3          0.899              1.153              0.557
 Vibration     4          0.946              1.057              0.470
                       Q            Log10(Q)             Ln(Q)
 Total Bot       0.112363D-15        -15.949378        -36.724800
 Total V=0       0.315354D+13         12.498798         28.779546
 Vib (Bot)       0.171021D-27        -27.766952        -63.935769
 Vib (Bot)    1  0.282869D+01          0.451585          1.039813
 Vib (Bot)    2  0.415209D+00         -0.381733         -0.878974
 Vib (Bot)    3  0.290322D+00         -0.537120         -1.236764
 Vib (Bot)    4  0.256836D+00         -0.590343         -1.359316
 Vib (V=0)       0.479981D+01          0.681224          1.568577
 Vib (V=0)    1  0.337254D+01          0.527957          1.215666
 Vib (V=0)    2  0.114992D+01          0.060668          0.139694
 Vib (V=0)    3  0.107818D+01          0.032689          0.075270
 Vib (V=0)    4  0.106211D+01          0.026169          0.060255
 Electronic      0.100000D+01          0.000000          0.000000
 Translational   0.182772D+08          7.261910         16.721166
 Rotational      0.359471D+05          4.555664         10.489803

     ==================================================
      Anharmonic Data: Displacement Vectors Definition
     ==================================================

 Framework definition based on atomic masses: C1  
 ***** Axes restored to original set *****
 -------------------------------------------------------------------
 Center     Atomic                   Forces (Hartrees/Bohr)
 Number     Number              X              Y              Z
 -------------------------------------------------------------------
      1        6          -0.000000026    0.000000030   -0.000000033
      2        1          -0.000000034    0.000000003   -0.000000021
      3        1           0.000000089   -0.000000026    0.000000004
      4        1          -0.000000014   -0.000000032    0.000000052
      5        6           0.000000014    0.000000008    0.000000048
      6        8           0.000000027   -0.000000038   -0.000000031
      7        8          -0.000000044    0.000000083    0.000000007
      8        1          -0.000000013   -0.000000027   -0.000000026
 -------------------------------------------------------------------
 Cartesian Forces:  Max     0.000000089 RMS     0.000000037
 NDeriv=     18 NFrqRd=  0 NDerD0=      0 MskFDP=       0 MskDFD=       0 MskDF0=       0
 At 1st pt F.D. properties file   721 does not exist.
 At 1st pt F.D. properties file   722 does not exist.
 D2Numr ... symmetry will not be used.
 Standard basis: STO-3G (5D, 7F)
    24 basis functions,    72 primitive gaussians,    24 cartesian basis functions
    16 alpha electrons       16 beta electrons
       nuclear repulsion energy       121.4615131941 Hartrees.
 NAtoms=    8 NActive=    8 NUniq=    8 SFac= 1.00D+00 NAtFMM=   60 NAOKFM=F Big=F
 Integral buffers will be    131072 words long.
 Raffenetti 1 integral format.
 Two-electron integral symmetry is turned off.
 External calculation of energy, first and second derivatives.
 Running external command "/home/mot/mace_gaussian/gm_helper.py R"
         input file       "/scratch/mot/Gau-419395.EIn"
         output file      "/scratch/mot/Gau-419395.EOu"
         message file     "/scratch/mot/Gau-419395.EMs"
         fchk file        "/scratch/mot/Gau-419395.EFC"
         mat. el file     "/scratch/mot/Gau-419395.EUF"
 Recovered energy= -229.106671668     dipole=      0.235701599442     -0.173192626718     -0.000320053523
 Energy=    -229.106672     NIter=   0.
 Dipole moment=       0.235702      -0.173193      -0.000320
 -------------------------------------------------------------------
 Center     Atomic                   Forces (Hartrees/Bohr)
 Number     Number              X              Y              Z
 -------------------------------------------------------------------
      1        6           0.000006993   -0.000003554   -0.000000192
      2        1          -0.000003156   -0.000007450   -0.000001973
      3        1          -0.000001985    0.000003735    0.000009420
      4        1          -0.000001687    0.000007487   -0.000007023
      5        6          -0.000000259   -0.000000089   -0.000000460
      6        8           0.000000233   -0.000000131    0.000003016
      7        8          -0.000000294    0.000000041   -0.000002825
      8        1           0.000000155   -0.000000038    0.000000037
 -------------------------------------------------------------------
 Cartesian Forces:  Max     0.000009420 RMS     0.000003891
 NDeriv=     18 NFrqRd=  0 NDerD0=      0 MskFDP=       0 MskDFD=       0 MskDF0=       0
 Re-enter D2Numr:  normal mode      1 step-up   number 1
 Standard basis: STO-3G (5D, 7F)
    24 basis functions,    72 primitive gaussians,    24 cartesian basis functions
    16 alpha electrons       16 beta electrons
       nuclear repulsion energy       121.4615131309 Hartrees.
 NAtoms=    8 NActive=    8 NUniq=    8 SFac= 1.00D+00 NAtFMM=   60 NAOKFM=F Big=F
 Integral buffers will be    131072 words long.
 Raffenetti 1 integral format.
 Two-electron integral symmetry is turned off.
 External calculation of energy, first and second derivatives.
 Running external command "/home/mot/mace_gaussian/gm_helper.py R"
         input file       "/scratch/mot/Gau-419395.EIn"
         output file      "/scratch/mot/Gau-419395.EOu"
         message file     "/scratch/mot/Gau-419395.EMs"
         fchk file        "/scratch/mot/Gau-419395.EFC"
         mat. el file     "/scratch/mot/Gau-419395.EUF"
 Recovered energy= -229.106671667     dipole=      0.235701610195     -0.173192567601      0.000325869319
 Energy=    -229.106672     NIter=   0.
 Dipole moment=       0.235702      -0.173193       0.000326
 -------------------------------------------------------------------
 Center     Atomic                   Forces (Hartrees/Bohr)
 Number     Number              X              Y              Z
 -------------------------------------------------------------------
      1        6           0.000006993   -0.000003554    0.000000185
      2        1          -0.000003156   -0.000007450    0.000002007
      3        1          -0.000001679    0.000007516    0.000007006
      4        1          -0.000001993    0.000003705   -0.000009437
      5        6          -0.000000259   -0.000000089    0.000000481
      6        8           0.000000233   -0.000000131   -0.000003070
      7        8          -0.000000294    0.000000041    0.000002855
      8        1           0.000000155   -0.000000038   -0.000000026
 -------------------------------------------------------------------
 Cartesian Forces:  Max     0.000009437 RMS     0.000003896
 NDeriv=     18 NFrqRd=  0 NDerD0=      0 MskFDP=       0 MskDFD=       0 MskDF0=       0
 Re-enter D2Numr:  normal mode      1 step-down number 1
 Standard basis: STO-3G (5D, 7F)
    24 basis functions,    72 primitive gaussians,    24 cartesian basis functions
    16 alpha electrons       16 beta electrons
       nuclear repulsion energy       121.4578702401 Hartrees.
 NAtoms=    8 NActive=    8 NUniq=    8 SFac= 1.00D+00 NAtFMM=   60 NAOKFM=F Big=F
 Integral buffers will be    131072 words long.
 Raffenetti 1 integral format.
 Two-electron integral symmetry is turned off.
 External calculation of energy, first and second derivatives.
 Running external command "/home/mot/mace_gaussian/gm_helper.py R"
         input file       "/scratch/mot/Gau-419395.EIn"
         output file      "/scratch/mot/Gau-419395.EOu"
         message file     "/scratch/mot/Gau-419395.EMs"
         fchk file        "/scratch/mot/Gau-419395.EFC"
         mat. el file     "/scratch/mot/Gau-419395.EUF"
 Recovered energy= -229.106670500     dipole=      0.236111449710     -0.172441955022      0.000002878725
 Energy=    -229.106671     NIter=   0.
 Dipole moment=       0.236111      -0.172442       0.000003
 -------------------------------------------------------------------
 Center     Atomic                   Forces (Hartrees/Bohr)
 Number     Number              X              Y              Z
 -------------------------------------------------------------------
      1        6          -0.000058784   -0.000162872   -0.000000004
      2        1           0.000026826   -0.000034813    0.000000016
      3        1          -0.000026351   -0.000024215    0.000001548
      4        1          -0.000026356   -0.000024243   -0.000001563
      5        6          -0.000008380    0.000139426    0.000000008
      6        8          -0.000182856    0.000101720   -0.000000025
      7        8           0.000263113    0.000024559    0.000000014
      8        1           0.000012788   -0.000019564    0.000000006
 -------------------------------------------------------------------
 Cartesian Forces:  Max     0.000263113 RMS     0.000083704
 NDeriv=     18 NFrqRd=  0 NDerD0=      0 MskFDP=       0 MskDFD=       0 MskDF0=       0
 Re-enter D2Numr:  normal mode      2 step-up   number 1
 Standard basis: STO-3G (5D, 7F)
    24 basis functions,    72 primitive gaussians,    24 cartesian basis functions
    16 alpha electrons       16 beta electrons
       nuclear repulsion energy       121.4653607008 Hartrees.
 NAtoms=    8 NActive=    8 NUniq=    8 SFac= 1.00D+00 NAtFMM=   60 NAOKFM=F Big=F
 Integral buffers will be    131072 words long.
 Raffenetti 1 integral format.
 Two-electron integral symmetry is turned off.
 External calculation of energy, first and second derivatives.
 Running external command "/home/mot/mace_gaussian/gm_helper.py R"
         input file       "/scratch/mot/Gau-419395.EIn"
         output file      "/scratch/mot/Gau-419395.EOu"
         message file     "/scratch/mot/Gau-419395.EMs"
         fchk file        "/scratch/mot/Gau-419395.EFC"
         mat. el file     "/scratch/mot/Gau-419395.EUF"
 Recovered energy= -229.106670499     dipole=      0.235292403211     -0.173943390857      0.000002937413
 Energy=    -229.106670     NIter=   0.
 Dipole moment=       0.235292      -0.173943       0.000003
 -------------------------------------------------------------------
 Center     Atomic                   Forces (Hartrees/Bohr)
 Number     Number              X              Y              Z
 -------------------------------------------------------------------
      1        6           0.000063302    0.000165078   -0.000000004
      2        1          -0.000029029    0.000029925    0.000000017
      3        1           0.000025784    0.000025862   -0.000000312
      4        1           0.000025775    0.000025833    0.000000295
      5        6           0.000008082   -0.000139273    0.000000012
      6        8           0.000182878   -0.000102778   -0.000000028
      7        8          -0.000266608   -0.000023646    0.000000016
      8        1          -0.000010184    0.000019000    0.000000004
 -------------------------------------------------------------------
 Cartesian Forces:  Max     0.000266608 RMS     0.000084468
 NDeriv=     18 NFrqRd=  0 NDerD0=      0 MskFDP=       0 MskDFD=       0 MskDF0=       0
 Re-enter D2Numr:  normal mode      2 step-down number 1
 Standard basis: STO-3G (5D, 7F)
    24 basis functions,    72 primitive gaussians,    24 cartesian basis functions
    16 alpha electrons       16 beta electrons
       nuclear repulsion energy       121.4614651375 Hartrees.
 NAtoms=    8 NActive=    8 NUniq=    8 SFac= 1.00D+00 NAtFMM=   60 NAOKFM=F Big=F
 Integral buffers will be    131072 words long.
 Raffenetti 1 integral format.
 Two-electron integral symmetry is turned off.
 External calculation of energy, first and second derivatives.
 Running external command "/home/mot/mace_gaussian/gm_helper.py R"
         input file       "/scratch/mot/Gau-419395.EIn"
         output file      "/scratch/mot/Gau-419395.EOu"
         message file     "/scratch/mot/Gau-419395.EMs"
         fchk file        "/scratch/mot/Gau-419395.EFC"
         mat. el file     "/scratch/mot/Gau-419395.EUF"
 Recovered energy= -229.106669706     dipole=      0.235705428311     -0.173193592345     -0.001917739548
 Energy=    -229.106670     NIter=   0.
 Dipole moment=       0.235705      -0.173194      -0.001918
 -------------------------------------------------------------------
 Center     Atomic                   Forces (Hartrees/Bohr)
 Number     Number              X              Y              Z
 -------------------------------------------------------------------
      1        6           0.000002191   -0.000001584    0.000025676
      2        1          -0.000000768   -0.000000790    0.000043883
      3        1           0.000060600    0.000000020    0.000025099
      4        1          -0.000061793    0.000002411    0.000020482
      5        6          -0.000002658    0.000002200   -0.000412457
      6        8           0.000001631   -0.000001866    0.000146090
      7        8          -0.000018607    0.000003739    0.000013577
      8        1           0.000019405   -0.000004130    0.000137649
 -------------------------------------------------------------------
 Cartesian Forces:  Max     0.000412457 RMS     0.000096286
 NDeriv=     18 NFrqRd=  0 NDerD0=      0 MskFDP=       0 MskDFD=       0 MskDF0=       0
 Re-enter D2Numr:  normal mode      3 step-up   number 1
 Standard basis: STO-3G (5D, 7F)
    24 basis functions,    72 primitive gaussians,    24 cartesian basis functions
    16 alpha electrons       16 beta electrons
       nuclear repulsion energy       121.4614660206 Hartrees.
 NAtoms=    8 NActive=    8 NUniq=    8 SFac= 1.00D+00 NAtFMM=   60 NAOKFM=F Big=F
 Integral buffers will be    131072 words long.
 Raffenetti 1 integral format.
 Two-electron integral symmetry is turned off.
 External calculation of energy, first and second derivatives.
 Running external command "/home/mot/mace_gaussian/gm_helper.py R"
         input file       "/scratch/mot/Gau-419395.EIn"
         output file      "/scratch/mot/Gau-419395.EOu"
         message file     "/scratch/mot/Gau-419395.EMs"
         fchk file        "/scratch/mot/Gau-419395.EFC"
         mat. el file     "/scratch/mot/Gau-419395.EUF"
 Recovered energy= -229.106669706     dipole=      0.235705367728     -0.173193625117      0.001923555820
 Energy=    -229.106670     NIter=   0.
 Dipole moment=       0.235705      -0.173194       0.001924
 -------------------------------------------------------------------
 Center     Atomic                   Forces (Hartrees/Bohr)
 Number     Number              X              Y              Z
 -------------------------------------------------------------------
      1        6           0.000002211   -0.000001596   -0.000025684
      2        1          -0.000000771   -0.000000792   -0.000043851
      3        1          -0.000061781    0.000002439   -0.000020499
      4        1           0.000060597   -0.000000009   -0.000025116
      5        6          -0.000002650    0.000002206    0.000412477
      6        8           0.000001598   -0.000001877   -0.000146143
      7        8          -0.000018608    0.000003758   -0.000013547
      8        1           0.000019404   -0.000004127   -0.000137638
 -------------------------------------------------------------------
 Cartesian Forces:  Max     0.000412477 RMS     0.000096292
 NDeriv=     18 NFrqRd=  0 NDerD0=      0 MskFDP=       0 MskDFD=       0 MskDF0=       0
 Re-enter D2Numr:  normal mode      3 step-down number 1
 Standard basis: STO-3G (5D, 7F)
    24 basis functions,    72 primitive gaussians,    24 cartesian basis functions
    16 alpha electrons       16 beta electrons
       nuclear repulsion energy       121.4648663448 Hartrees.
 NAtoms=    8 NActive=    8 NUniq=    8 SFac= 1.00D+00 NAtFMM=   60 NAOKFM=F Big=F
 Integral buffers will be    131072 words long.
 Raffenetti 1 integral format.
 Two-electron integral symmetry is turned off.
 External calculation of energy, first and second derivatives.
 Running external command "/home/mot/mace_gaussian/gm_helper.py R"
         input file       "/scratch/mot/Gau-419395.EIn"
         output file      "/scratch/mot/Gau-419395.EOu"
         message file     "/scratch/mot/Gau-419395.EMs"
         fchk file        "/scratch/mot/Gau-419395.EFC"
         mat. el file     "/scratch/mot/Gau-419395.EUF"
 Recovered energy= -229.106669367     dipole=      0.234079565433     -0.173873310489      0.000002837859
 Energy=    -229.106669     NIter=   0.
 Dipole moment=       0.234080      -0.173873       0.000003
 -------------------------------------------------------------------
 Center     Atomic                   Forces (Hartrees/Bohr)
 Number     Number              X              Y              Z
 -------------------------------------------------------------------
      1        6           0.000370361   -0.000094444   -0.000000001
      2        1           0.000045879   -0.000016000    0.000000017
      3        1           0.000024165   -0.000011335   -0.000000023
      4        1           0.000024156   -0.000011364    0.000000008
      5        6           0.000196458    0.000008326   -0.000000003
      6        8          -0.000494346   -0.000354414   -0.000000023
      7        8          -0.000174065    0.000393854    0.000000013
      8        1           0.000007393    0.000085378    0.000000011
 -------------------------------------------------------------------
 Cartesian Forces:  Max     0.000494346 RMS     0.000176929
 NDeriv=     18 NFrqRd=  0 NDerD0=      0 MskFDP=       0 MskDFD=       0 MskDF0=       0
 Re-enter D2Numr:  normal mode      4 step-up   number 1
 Standard basis: STO-3G (5D, 7F)
    24 basis functions,    72 primitive gaussians,    24 cartesian basis functions
    16 alpha electrons       16 beta electrons
       nuclear repulsion energy       121.4584042952 Hartrees.
 NAtoms=    8 NActive=    8 NUniq=    8 SFac= 1.00D+00 NAtFMM=   60 NAOKFM=F Big=F
 Integral buffers will be    131072 words long.
 Raffenetti 1 integral format.
 Two-electron integral symmetry is turned off.
 External calculation of energy, first and second derivatives.
 Running external command "/home/mot/mace_gaussian/gm_helper.py R"
         input file       "/scratch/mot/Gau-419395.EIn"
         output file      "/scratch/mot/Gau-419395.EOu"
         message file     "/scratch/mot/Gau-419395.EMs"
         fchk file        "/scratch/mot/Gau-419395.EFC"
         mat. el file     "/scratch/mot/Gau-419395.EUF"
 Recovered energy= -229.106669364     dipole=      0.237333185656     -0.172515871075      0.000002978177
 Energy=    -229.106669     NIter=   0.
 Dipole moment=       0.237333      -0.172516       0.000003
 -------------------------------------------------------------------
 Center     Atomic                   Forces (Hartrees/Bohr)
 Number     Number              X              Y              Z
 -------------------------------------------------------------------
      1        6          -0.000368570    0.000094024   -0.000000006
      2        1          -0.000045878    0.000015607    0.000000015
      3        1          -0.000024204    0.000011485   -0.000000068
      4        1          -0.000024210    0.000011456    0.000000050
      5        6          -0.000199934   -0.000005408    0.000000023
      6        8           0.000495789    0.000354680   -0.000000031
      7        8           0.000168610   -0.000394858    0.000000017
      8        1          -0.000001602   -0.000086986   -0.000000001
 -------------------------------------------------------------------
 Cartesian Forces:  Max     0.000495789 RMS     0.000177011
 NDeriv=     18 NFrqRd=  0 NDerD0=      0 MskFDP=       0 MskDFD=       0 MskDF0=       0
 Re-enter D2Numr:  normal mode      4 step-down number 1
 Standard basis: STO-3G (5D, 7F)
    24 basis functions,    72 primitive gaussians,    24 cartesian basis functions
    16 alpha electrons       16 beta electrons
       nuclear repulsion energy       121.4614355818 Hartrees.
 NAtoms=    8 NActive=    8 NUniq=    8 SFac= 1.00D+00 NAtFMM=   60 NAOKFM=F Big=F
 Integral buffers will be    131072 words long.
 Raffenetti 1 integral format.
 Two-electron integral symmetry is turned off.
 External calculation of energy, first and second derivatives.
 Running external command "/home/mot/mace_gaussian/gm_helper.py R"
         input file       "/scratch/mot/Gau-419395.EIn"
         output file      "/scratch/mot/Gau-419395.EOu"
         message file     "/scratch/mot/Gau-419395.EMs"
         fchk file        "/scratch/mot/Gau-419395.EFC"
         mat. el file     "/scratch/mot/Gau-419395.EUF"
 Recovered energy= -229.106668733     dipole=      0.235707444777     -0.173193725407     -0.002919081251
 Energy=    -229.106669     NIter=   0.
 Dipole moment=       0.235707      -0.173194      -0.002919
 -------------------------------------------------------------------
 Center     Atomic                   Forces (Hartrees/Bohr)
 Number     Number              X              Y              Z
 -------------------------------------------------------------------
      1        6           0.000001301   -0.000000458    0.000116902
      2        1          -0.000000183   -0.000000445   -0.000034970
      3        1          -0.000072035    0.000013329   -0.000021016
      4        1           0.000071034   -0.000011830   -0.000023841
      5        6           0.000000611    0.000002565    0.000472811
      6        8           0.000001392   -0.000001575   -0.000291349
      7        8          -0.000029788    0.000007040   -0.000440766
      8        1           0.000027669   -0.000008627    0.000222229
 -------------------------------------------------------------------
 Cartesian Forces:  Max     0.000472811 RMS     0.000155501
 NDeriv=     18 NFrqRd=  0 NDerD0=      0 MskFDP=       0 MskDFD=       0 MskDF0=       0
 Re-enter D2Numr:  normal mode      5 step-up   number 1
 Standard basis: STO-3G (5D, 7F)
    24 basis functions,    72 primitive gaussians,    24 cartesian basis functions
    16 alpha electrons       16 beta electrons
       nuclear repulsion energy       121.4614347631 Hartrees.
 NAtoms=    8 NActive=    8 NUniq=    8 SFac= 1.00D+00 NAtFMM=   60 NAOKFM=F Big=F
 Integral buffers will be    131072 words long.
 Raffenetti 1 integral format.
 Two-electron integral symmetry is turned off.
 External calculation of energy, first and second derivatives.
 Running external command "/home/mot/mace_gaussian/gm_helper.py R"
         input file       "/scratch/mot/Gau-419395.EIn"
         output file      "/scratch/mot/Gau-419395.EOu"
         message file     "/scratch/mot/Gau-419395.EMs"
         fchk file        "/scratch/mot/Gau-419395.EFC"
         mat. el file     "/scratch/mot/Gau-419395.EUF"
 Recovered energy= -229.106668734     dipole=      0.235707435628     -0.173193727224      0.002924897545
 Energy=    -229.106669     NIter=   0.
 Dipole moment=       0.235707      -0.173194       0.002925
 -------------------------------------------------------------------
 Center     Atomic                   Forces (Hartrees/Bohr)
 Number     Number              X              Y              Z
 -------------------------------------------------------------------
      1        6           0.000001302   -0.000000465   -0.000116909
      2        1          -0.000000176   -0.000000445    0.000035002
      3        1           0.000071037   -0.000011801    0.000023825
      4        1          -0.000072046    0.000013301    0.000020999
      5        6           0.000000615    0.000002565   -0.000472791
      6        8           0.000001382   -0.000001584    0.000291295
      7        8          -0.000029781    0.000007053    0.000440797
      8        1           0.000027668   -0.000008624   -0.000222218
 -------------------------------------------------------------------
 Cartesian Forces:  Max     0.000472791 RMS     0.000155498
 NDeriv=     18 NFrqRd=  0 NDerD0=      0 MskFDP=       0 MskDFD=       0 MskDF0=       0
 Re-enter D2Numr:  normal mode      5 step-down number 1
 Standard basis: STO-3G (5D, 7F)
    24 basis functions,    72 primitive gaussians,    24 cartesian basis functions
    16 alpha electrons       16 beta electrons
       nuclear repulsion energy       121.3662179575 Hartrees.
 NAtoms=    8 NActive=    8 NUniq=    8 SFac= 1.00D+00 NAtFMM=   60 NAOKFM=F Big=F
 Integral buffers will be    131072 words long.
 Raffenetti 1 integral format.
 Two-electron integral symmetry is turned off.
 External calculation of energy, first and second derivatives.
 Running external command "/home/mot/mace_gaussian/gm_helper.py R"
         input file       "/scratch/mot/Gau-419395.EIn"
         output file      "/scratch/mot/Gau-419395.EOu"
         message file     "/scratch/mot/Gau-419395.EMs"
         fchk file        "/scratch/mot/Gau-419395.EFC"
         mat. el file     "/scratch/mot/Gau-419395.EUF"
 Recovered energy= -229.106666543     dipole=      0.235011392171     -0.173176026713      0.000002879936
 Energy=    -229.106667     NIter=   0.
 Dipole moment=       0.235011      -0.173176       0.000003
 -------------------------------------------------------------------
 Center     Atomic                   Forces (Hartrees/Bohr)
 Number     Number              X              Y              Z
 -------------------------------------------------------------------
      1        6          -0.001039136    0.000146762   -0.000000010
      2        1          -0.000118478    0.000025616    0.000000016
      3        1          -0.000102746    0.000008840   -0.000001089
      4        1          -0.000102754    0.000008812    0.000001073
      5        6           0.000402065   -0.000358896    0.000000027
      6        8           0.000290642   -0.000837811   -0.000000033
      7        8           0.000605111    0.000850191    0.000000009
      8        1           0.000065296    0.000156485    0.000000006
 -------------------------------------------------------------------
 Cartesian Forces:  Max     0.001039136 RMS     0.000372598
 NDeriv=     18 NFrqRd=  0 NDerD0=      0 MskFDP=       0 MskDFD=       0 MskDF0=       0
 Re-enter D2Numr:  normal mode      6 step-up   number 1
 Standard basis: STO-3G (5D, 7F)
    24 basis functions,    72 primitive gaussians,    24 cartesian basis functions
    16 alpha electrons       16 beta electrons
       nuclear repulsion energy       121.5572982074 Hartrees.
 NAtoms=    8 NActive=    8 NUniq=    8 SFac= 1.00D+00 NAtFMM=   60 NAOKFM=F Big=F
 Integral buffers will be    131072 words long.
 Raffenetti 1 integral format.
 Two-electron integral symmetry is turned off.
 External calculation of energy, first and second derivatives.
 Running external command "/home/mot/mace_gaussian/gm_helper.py R"
         input file       "/scratch/mot/Gau-419395.EIn"
         output file      "/scratch/mot/Gau-419395.EOu"
         message file     "/scratch/mot/Gau-419395.EMs"
         fchk file        "/scratch/mot/Gau-419395.EFC"
         mat. el file     "/scratch/mot/Gau-419395.EUF"
 Recovered energy= -229.106666509     dipole=      0.236401812795     -0.173204388321      0.000002936264
 Energy=    -229.106667     NIter=   0.
 Dipole moment=       0.236402      -0.173204       0.000003
 -------------------------------------------------------------------
 Center     Atomic                   Forces (Hartrees/Bohr)
 Number     Number              X              Y              Z
 -------------------------------------------------------------------
      1        6           0.001055064   -0.000148531    0.000000002
      2        1           0.000118619   -0.000025765    0.000000016
      3        1           0.000102902   -0.000008779    0.000000931
      4        1           0.000102895   -0.000008809   -0.000000948
      5        6          -0.000411168    0.000366379   -0.000000007
      6        8          -0.000291718    0.000840653   -0.000000021
      7        8          -0.000613719   -0.000857711    0.000000021
      8        1          -0.000062874   -0.000157436    0.000000005
 -------------------------------------------------------------------
 Cartesian Forces:  Max     0.001055064 RMS     0.000376798
 NDeriv=     18 NFrqRd=  0 NDerD0=      0 MskFDP=       0 MskDFD=       0 MskDF0=       0
 Re-enter D2Numr:  normal mode      6 step-down number 1
 Standard basis: STO-3G (5D, 7F)
    24 basis functions,    72 primitive gaussians,    24 cartesian basis functions
    16 alpha electrons       16 beta electrons
       nuclear repulsion energy       121.4706069698 Hartrees.
 NAtoms=    8 NActive=    8 NUniq=    8 SFac= 1.00D+00 NAtFMM=   60 NAOKFM=F Big=F
 Integral buffers will be    131072 words long.
 Raffenetti 1 integral format.
 Two-electron integral symmetry is turned off.
 External calculation of energy, first and second derivatives.
 Running external command "/home/mot/mace_gaussian/gm_helper.py R"
         input file       "/scratch/mot/Gau-419395.EIn"
         output file      "/scratch/mot/Gau-419395.EOu"
         message file     "/scratch/mot/Gau-419395.EMs"
         fchk file        "/scratch/mot/Gau-419395.EFC"
         mat. el file     "/scratch/mot/Gau-419395.EUF"
 Recovered energy= -229.106664943     dipole=      0.234646609682     -0.174478158552      0.000002909250
 Energy=    -229.106665     NIter=   0.
 Dipole moment=       0.234647      -0.174478       0.000003
 -------------------------------------------------------------------
 Center     Atomic                   Forces (Hartrees/Bohr)
 Number     Number              X              Y              Z
 -------------------------------------------------------------------
      1        6           0.000001211    0.001133864   -0.000000012
      2        1           0.000357567   -0.000120370    0.000000012
      3        1          -0.000256034   -0.000095574    0.000048821
      4        1          -0.000256014   -0.000095612   -0.000048830
      5        6           0.000470800    0.000169974    0.000000018
      6        8           0.000267133   -0.000258166   -0.000000027
      7        8          -0.000593557   -0.000853112    0.000000015
      8        1           0.000008894    0.000118995    0.000000003
 -------------------------------------------------------------------
 Cartesian Forces:  Max     0.001133864 RMS     0.000357365
 NDeriv=     18 NFrqRd=  0 NDerD0=      0 MskFDP=       0 MskDFD=       0 MskDF0=       0
 Re-enter D2Numr:  normal mode      7 step-up   number 1
 Standard basis: STO-3G (5D, 7F)
    24 basis functions,    72 primitive gaussians,    24 cartesian basis functions
    16 alpha electrons       16 beta electrons
       nuclear repulsion energy       121.4525880585 Hartrees.
 NAtoms=    8 NActive=    8 NUniq=    8 SFac= 1.00D+00 NAtFMM=   60 NAOKFM=F Big=F
 Integral buffers will be    131072 words long.
 Raffenetti 1 integral format.
 Two-electron integral symmetry is turned off.
 External calculation of energy, first and second derivatives.
 Running external command "/home/mot/mace_gaussian/gm_helper.py R"
         input file       "/scratch/mot/Gau-419395.EIn"
         output file      "/scratch/mot/Gau-419395.EOu"
         message file     "/scratch/mot/Gau-419395.EMs"
         fchk file        "/scratch/mot/Gau-419395.EFC"
         mat. el file     "/scratch/mot/Gau-419395.EUF"
 Recovered energy= -229.106664950     dipole=      0.236757245566     -0.171904092999      0.000002906393
 Energy=    -229.106665     NIter=   0.
 Dipole moment=       0.236757      -0.171904       0.000003
 -------------------------------------------------------------------
 Center     Atomic                   Forces (Hartrees/Bohr)
 Number     Number              X              Y              Z
 -------------------------------------------------------------------
      1        6           0.000011894   -0.001131284    0.000000004
      2        1          -0.000363146    0.000105440    0.000000021
      3        1           0.000254664    0.000101575   -0.000042186
      4        1           0.000254630    0.000101554    0.000042162
      5        6          -0.000469340   -0.000161953    0.000000003
      6        8          -0.000268149    0.000258330   -0.000000027
      7        8           0.000583226    0.000846591    0.000000015
      8        1          -0.000003778   -0.000120253    0.000000008
 -------------------------------------------------------------------
 Cartesian Forces:  Max     0.001131284 RMS     0.000355511
 NDeriv=     18 NFrqRd=  0 NDerD0=      0 MskFDP=       0 MskDFD=       0 MskDF0=       0
 Re-enter D2Numr:  normal mode      7 step-down number 1
 Standard basis: STO-3G (5D, 7F)
    24 basis functions,    72 primitive gaussians,    24 cartesian basis functions
    16 alpha electrons       16 beta electrons
       nuclear repulsion energy       121.4615328678 Hartrees.
 NAtoms=    8 NActive=    8 NUniq=    8 SFac= 1.00D+00 NAtFMM=   60 NAOKFM=F Big=F
 Integral buffers will be    131072 words long.
 Raffenetti 1 integral format.
 Two-electron integral symmetry is turned off.
 External calculation of energy, first and second derivatives.
 Running external command "/home/mot/mace_gaussian/gm_helper.py R"
         input file       "/scratch/mot/Gau-419395.EIn"
         output file      "/scratch/mot/Gau-419395.EOu"
         message file     "/scratch/mot/Gau-419395.EMs"
         fchk file        "/scratch/mot/Gau-419395.EFC"
         mat. el file     "/scratch/mot/Gau-419395.EUF"
 Recovered energy= -229.106664053     dipole=      0.235703334184     -0.173196832304      0.000834624016
 Energy=    -229.106664     NIter=   0.
 Dipole moment=       0.235703      -0.173197       0.000835
 -------------------------------------------------------------------
 Center     Atomic                   Forces (Hartrees/Bohr)
 Number     Number              X              Y              Z
 -------------------------------------------------------------------
      1        6           0.000003510   -0.000000796    0.001216030
      2        1          -0.000001677   -0.000003605   -0.000228182
      3        1          -0.000348128    0.000110356   -0.000087465
      4        1           0.000347456   -0.000106403   -0.000097064
      5        6          -0.000001551    0.000001511   -0.001489591
      6        8           0.000000464   -0.000001002    0.000409418
      7        8          -0.000000133   -0.000000017    0.000285611
      8        1           0.000000059   -0.000000045   -0.000008757
 -------------------------------------------------------------------
 Cartesian Forces:  Max     0.001489591 RMS     0.000422368
 NDeriv=     18 NFrqRd=  0 NDerD0=      0 MskFDP=       0 MskDFD=       0 MskDF0=       0
 Re-enter D2Numr:  normal mode      8 step-up   number 1
 Standard basis: STO-3G (5D, 7F)
    24 basis functions,    72 primitive gaussians,    24 cartesian basis functions
    16 alpha electrons       16 beta electrons
       nuclear repulsion energy       121.4615344062 Hartrees.
 NAtoms=    8 NActive=    8 NUniq=    8 SFac= 1.00D+00 NAtFMM=   60 NAOKFM=F Big=F
 Integral buffers will be    131072 words long.
 Raffenetti 1 integral format.
 Two-electron integral symmetry is turned off.
 External calculation of energy, first and second derivatives.
 Running external command "/home/mot/mace_gaussian/gm_helper.py R"
         input file       "/scratch/mot/Gau-419395.EIn"
         output file      "/scratch/mot/Gau-419395.EOu"
         message file     "/scratch/mot/Gau-419395.EMs"
         fchk file        "/scratch/mot/Gau-419395.EFC"
         mat. el file     "/scratch/mot/Gau-419395.EUF"
 Recovered energy= -229.106664053     dipole=      0.235703262233     -0.173196796753     -0.000828807473
 Energy=    -229.106664     NIter=   0.
 Dipole moment=       0.235703      -0.173197      -0.000829
 -------------------------------------------------------------------
 Center     Atomic                   Forces (Hartrees/Bohr)
 Number     Number              X              Y              Z
 -------------------------------------------------------------------
      1        6           0.000003541   -0.000000819   -0.001216038
      2        1          -0.000001645   -0.000003594    0.000228216
      3        1           0.000347449   -0.000106376    0.000097060
      4        1          -0.000348150    0.000110324    0.000087435
      5        6          -0.000001549    0.000001521    0.001489612
      6        8           0.000000442   -0.000000979   -0.000409472
      7        8          -0.000000146   -0.000000030   -0.000285580
      8        1           0.000000058   -0.000000046    0.000008768
 -------------------------------------------------------------------
 Cartesian Forces:  Max     0.001489612 RMS     0.000422374
 NDeriv=     18 NFrqRd=  0 NDerD0=      0 MskFDP=       0 MskDFD=       0 MskDF0=       0
 Re-enter D2Numr:  normal mode      8 step-down number 1
 Standard basis: STO-3G (5D, 7F)
    24 basis functions,    72 primitive gaussians,    24 cartesian basis functions
    16 alpha electrons       16 beta electrons
       nuclear repulsion energy       121.4954872526 Hartrees.
 NAtoms=    8 NActive=    8 NUniq=    8 SFac= 1.00D+00 NAtFMM=   60 NAOKFM=F Big=F
 Integral buffers will be    131072 words long.
 Raffenetti 1 integral format.
 Two-electron integral symmetry is turned off.
 External calculation of energy, first and second derivatives.
 Running external command "/home/mot/mace_gaussian/gm_helper.py R"
         input file       "/scratch/mot/Gau-419395.EIn"
         output file      "/scratch/mot/Gau-419395.EOu"
         message file     "/scratch/mot/Gau-419395.EMs"
         fchk file        "/scratch/mot/Gau-419395.EFC"
         mat. el file     "/scratch/mot/Gau-419395.EUF"
 Recovered energy= -229.106661712     dipole=      0.232790467930     -0.175508626032      0.000002921347
 Energy=    -229.106662     NIter=   0.
 Dipole moment=       0.232790      -0.175509       0.000003
 -------------------------------------------------------------------
 Center     Atomic                   Forces (Hartrees/Bohr)
 Number     Number              X              Y              Z
 -------------------------------------------------------------------
      1        6          -0.000396713   -0.000708698    0.000000002
      2        1          -0.000279679    0.000080237    0.000000021
      3        1           0.000042398    0.000092771   -0.000070311
      4        1           0.000042381    0.000092755    0.000070288
      5        6           0.001139119    0.000831445    0.000000005
      6        8          -0.000551935    0.001020423   -0.000000026
      7        8          -0.000186921   -0.002043846    0.000000015
      8        1           0.000191350    0.000634913    0.000000006
 -------------------------------------------------------------------
 Cartesian Forces:  Max     0.002043846 RMS     0.000604212
 NDeriv=     18 NFrqRd=  0 NDerD0=      0 MskFDP=       0 MskDFD=       0 MskDF0=       0
 Re-enter D2Numr:  normal mode      9 step-up   number 1
 Standard basis: STO-3G (5D, 7F)
    24 basis functions,    72 primitive gaussians,    24 cartesian basis functions
    16 alpha electrons       16 beta electrons
       nuclear repulsion energy       121.4276969071 Hartrees.
 NAtoms=    8 NActive=    8 NUniq=    8 SFac= 1.00D+00 NAtFMM=   60 NAOKFM=F Big=F
 Integral buffers will be    131072 words long.
 Raffenetti 1 integral format.
 Two-electron integral symmetry is turned off.
 External calculation of energy, first and second derivatives.
 Running external command "/home/mot/mace_gaussian/gm_helper.py R"
         input file       "/scratch/mot/Gau-419395.EIn"
         output file      "/scratch/mot/Gau-419395.EOu"
         message file     "/scratch/mot/Gau-419395.EMs"
         fchk file        "/scratch/mot/Gau-419395.EFC"
         mat. el file     "/scratch/mot/Gau-419395.EUF"
 Recovered energy= -229.106661713     dipole=      0.238630378794     -0.170872623622      0.000002894627
 Energy=    -229.106662     NIter=   0.
 Dipole moment=       0.238630      -0.170873       0.000003
 -------------------------------------------------------------------
 Center     Atomic                   Forces (Hartrees/Bohr)
 Number     Number              X              Y              Z
 -------------------------------------------------------------------
      1        6           0.000401733    0.000709410   -0.000000010
      2        1           0.000280002   -0.000082603    0.000000012
      3        1          -0.000042657   -0.000091594    0.000071032
      4        1          -0.000042656   -0.000091635   -0.000071042
      5        6          -0.001132267   -0.000818446    0.000000016
      6        8           0.000552520   -0.001015782   -0.000000028
      7        8           0.000133101    0.002040233    0.000000016
      8        1          -0.000149775   -0.000649583    0.000000005
 -------------------------------------------------------------------
 Cartesian Forces:  Max     0.002040233 RMS     0.000601873
 NDeriv=     18 NFrqRd=  0 NDerD0=      0 MskFDP=       0 MskDFD=       0 MskDF0=       0
 Re-enter D2Numr:  normal mode      9 step-down number 1
 Standard basis: STO-3G (5D, 7F)
    24 basis functions,    72 primitive gaussians,    24 cartesian basis functions
    16 alpha electrons       16 beta electrons
       nuclear repulsion energy       121.4553366834 Hartrees.
 NAtoms=    8 NActive=    8 NUniq=    8 SFac= 1.00D+00 NAtFMM=   60 NAOKFM=F Big=F
 Integral buffers will be    131072 words long.
 Raffenetti 1 integral format.
 Two-electron integral symmetry is turned off.
 External calculation of energy, first and second derivatives.
 Running external command "/home/mot/mace_gaussian/gm_helper.py R"
         input file       "/scratch/mot/Gau-419395.EIn"
         output file      "/scratch/mot/Gau-419395.EOu"
         message file     "/scratch/mot/Gau-419395.EMs"
         fchk file        "/scratch/mot/Gau-419395.EFC"
         mat. el file     "/scratch/mot/Gau-419395.EUF"
 Recovered energy= -229.106659597     dipole=      0.235502913305     -0.172224222533      0.000002900261
 Energy=    -229.106660     NIter=   0.
 Dipole moment=       0.235503      -0.172224       0.000003
 -------------------------------------------------------------------
 Center     Atomic                   Forces (Hartrees/Bohr)
 Number     Number              X              Y              Z
 -------------------------------------------------------------------
      1        6          -0.000539999    0.000479201   -0.000000009
      2        1           0.000410948   -0.000217584    0.000000018
      3        1           0.000355617   -0.000108227    0.000210812
      4        1           0.000355609   -0.000108280   -0.000210823
      5        6          -0.002088950   -0.001348633    0.000000012
      6        8           0.000188730    0.000792281   -0.000000026
      7        8           0.001114196   -0.000076514    0.000000012
      8        1           0.000203849    0.000587756    0.000000006
 -------------------------------------------------------------------
 Cartesian Forces:  Max     0.002088950 RMS     0.000631890
 NDeriv=     18 NFrqRd=  0 NDerD0=      0 MskFDP=       0 MskDFD=       0 MskDF0=       0
 Re-enter D2Numr:  normal mode     10 step-up   number 1
 Standard basis: STO-3G (5D, 7F)
    24 basis functions,    72 primitive gaussians,    24 cartesian basis functions
    16 alpha electrons       16 beta electrons
       nuclear repulsion energy       121.4678505878 Hartrees.
 NAtoms=    8 NActive=    8 NUniq=    8 SFac= 1.00D+00 NAtFMM=   60 NAOKFM=F Big=F
 Integral buffers will be    131072 words long.
 Raffenetti 1 integral format.
 Two-electron integral symmetry is turned off.
 External calculation of energy, first and second derivatives.
 Running external command "/home/mot/mace_gaussian/gm_helper.py R"
         input file       "/scratch/mot/Gau-419395.EIn"
         output file      "/scratch/mot/Gau-419395.EOu"
         message file     "/scratch/mot/Gau-419395.EMs"
         fchk file        "/scratch/mot/Gau-419395.EFC"
         mat. el file     "/scratch/mot/Gau-419395.EUF"
 Recovered energy= -229.106659556     dipole=      0.235916843776     -0.174158945084      0.000002915681
 Energy=    -229.106660     NIter=   0.
 Dipole moment=       0.235917      -0.174159       0.000003
 -------------------------------------------------------------------
 Center     Atomic                   Forces (Hartrees/Bohr)
 Number     Number              X              Y              Z
 -------------------------------------------------------------------
      1        6           0.000549694   -0.000478635    0.000000002
      2        1          -0.000413045    0.000212627    0.000000015
      3        1          -0.000357542    0.000110460   -0.000208019
      4        1          -0.000357550    0.000110456    0.000207997
      5        6           0.002098786    0.001363643    0.000000009
      6        8          -0.000189380   -0.000793684   -0.000000028
      7        8          -0.001137228    0.000070519    0.000000019
      8        1          -0.000193736   -0.000595386    0.000000005
 -------------------------------------------------------------------
 Cartesian Forces:  Max     0.002098786 RMS     0.000636860
 NDeriv=     18 NFrqRd=  0 NDerD0=      0 MskFDP=       0 MskDFD=       0 MskDF0=       0
 Re-enter D2Numr:  normal mode     10 step-down number 1
 Standard basis: STO-3G (5D, 7F)
    24 basis functions,    72 primitive gaussians,    24 cartesian basis functions
    16 alpha electrons       16 beta electrons
       nuclear repulsion energy       121.4575153073 Hartrees.
 NAtoms=    8 NActive=    8 NUniq=    8 SFac= 1.00D+00 NAtFMM=   60 NAOKFM=F Big=F
 Integral buffers will be    131072 words long.
 Raffenetti 1 integral format.
 Two-electron integral symmetry is turned off.
 External calculation of energy, first and second derivatives.
 Running external command "/home/mot/mace_gaussian/gm_helper.py R"
         input file       "/scratch/mot/Gau-419395.EIn"
         output file      "/scratch/mot/Gau-419395.EOu"
         message file     "/scratch/mot/Gau-419395.EMs"
         fchk file        "/scratch/mot/Gau-419395.EFC"
         mat. el file     "/scratch/mot/Gau-419395.EUF"
 Recovered energy= -229.106658241     dipole=      0.233308772685     -0.173832898782      0.000002870239
 Energy=    -229.106658     NIter=   0.
 Dipole moment=       0.233309      -0.173833       0.000003
 -------------------------------------------------------------------
 Center     Atomic                   Forces (Hartrees/Bohr)
 Number     Number              X              Y              Z
 -------------------------------------------------------------------
      1        6          -0.002329319    0.000080789   -0.000000036
      2        1           0.000383424   -0.000313545    0.000000065
      3        1           0.000555799    0.000090264    0.000184925
      4        1           0.000555818    0.000090248   -0.000184946
      5        6           0.001851742    0.001323560   -0.000000010
      6        8          -0.000081619   -0.000746258   -0.000000024
      7        8          -0.000820239   -0.000191253    0.000000021
      8        1          -0.000115606   -0.000333804    0.000000006
 -------------------------------------------------------------------
 Cartesian Forces:  Max     0.002329319 RMS     0.000734807
 NDeriv=     18 NFrqRd=  0 NDerD0=      0 MskFDP=       0 MskDFD=       0 MskDF0=       0
 Re-enter D2Numr:  normal mode     11 step-up   number 1
 Standard basis: STO-3G (5D, 7F)
    24 basis functions,    72 primitive gaussians,    24 cartesian basis functions
    16 alpha electrons       16 beta electrons
       nuclear repulsion energy       121.4657074570 Hartrees.
 NAtoms=    8 NActive=    8 NUniq=    8 SFac= 1.00D+00 NAtFMM=   60 NAOKFM=F Big=F
 Integral buffers will be    131072 words long.
 Raffenetti 1 integral format.
 Two-electron integral symmetry is turned off.
 External calculation of energy, first and second derivatives.
 Running external command "/home/mot/mace_gaussian/gm_helper.py R"
         input file       "/scratch/mot/Gau-419395.EIn"
         output file      "/scratch/mot/Gau-419395.EOu"
         message file     "/scratch/mot/Gau-419395.EMs"
         fchk file        "/scratch/mot/Gau-419395.EFC"
         mat. el file     "/scratch/mot/Gau-419395.EUF"
 Recovered energy= -229.106658212     dipole=      0.238074689292     -0.172547046842      0.000002945963
 Energy=    -229.106658     NIter=   0.
 Dipole moment=       0.238075      -0.172547       0.000003
 -------------------------------------------------------------------
 Center     Atomic                   Forces (Hartrees/Bohr)
 Number     Number              X              Y              Z
 -------------------------------------------------------------------
      1        6           0.002360360   -0.000091016    0.000000029
      2        1          -0.000389602    0.000308003   -0.000000032
      3        1          -0.000560262   -0.000084291   -0.000176944
      4        1          -0.000560296   -0.000084333    0.000176932
      5        6          -0.001858803   -0.001310460    0.000000030
      6        8           0.000080292    0.000746498   -0.000000029
      7        8           0.000811537    0.000183834    0.000000009
      8        1           0.000116775    0.000331766    0.000000005
 -------------------------------------------------------------------
 Cartesian Forces:  Max     0.002360360 RMS     0.000738330
 NDeriv=     18 NFrqRd=  0 NDerD0=      0 MskFDP=       0 MskDFD=       0 MskDF0=       0
 Re-enter D2Numr:  normal mode     11 step-down number 1
 Standard basis: STO-3G (5D, 7F)
    24 basis functions,    72 primitive gaussians,    24 cartesian basis functions
    16 alpha electrons       16 beta electrons
       nuclear repulsion energy       121.4690064134 Hartrees.
 NAtoms=    8 NActive=    8 NUniq=    8 SFac= 1.00D+00 NAtFMM=   60 NAOKFM=F Big=F
 Integral buffers will be    131072 words long.
 Raffenetti 1 integral format.
 Two-electron integral symmetry is turned off.
 External calculation of energy, first and second derivatives.
 Running external command "/home/mot/mace_gaussian/gm_helper.py R"
         input file       "/scratch/mot/Gau-419395.EIn"
         output file      "/scratch/mot/Gau-419395.EOu"
         message file     "/scratch/mot/Gau-419395.EMs"
         fchk file        "/scratch/mot/Gau-419395.EFC"
         mat. el file     "/scratch/mot/Gau-419395.EUF"
 Recovered energy= -229.106657303     dipole=      0.235095611899     -0.171815534050      0.000002900195
 Energy=    -229.106657     NIter=   0.
 Dipole moment=       0.235096      -0.171816       0.000003
 -------------------------------------------------------------------
 Center     Atomic                   Forces (Hartrees/Bohr)
 Number     Number              X              Y              Z
 -------------------------------------------------------------------
      1        6           0.000185910    0.000776714   -0.000000015
      2        1          -0.000552503    0.000359593   -0.000000031
      3        1           0.000111637   -0.000751374    0.000561939
      4        1           0.000111594   -0.000751479   -0.000561891
      5        6           0.000692542    0.000235736   -0.000000001
      6        8          -0.000335571    0.000298695   -0.000000021
      7        8          -0.000189518   -0.000096264    0.000000015
      8        1          -0.000024093   -0.000071621    0.000000004
 -------------------------------------------------------------------
 Cartesian Forces:  Max     0.000776714 RMS     0.000389766
 NDeriv=     18 NFrqRd=  0 NDerD0=      0 MskFDP=       0 MskDFD=       0 MskDF0=       0
 Re-enter D2Numr:  normal mode     12 step-up   number 1
 Standard basis: STO-3G (5D, 7F)
    24 basis functions,    72 primitive gaussians,    24 cartesian basis functions
    16 alpha electrons       16 beta electrons
       nuclear repulsion energy       121.4540559239 Hartrees.
 NAtoms=    8 NActive=    8 NUniq=    8 SFac= 1.00D+00 NAtFMM=   60 NAOKFM=F Big=F
 Integral buffers will be    131072 words long.
 Raffenetti 1 integral format.
 Two-electron integral symmetry is turned off.
 External calculation of energy, first and second derivatives.
 Running external command "/home/mot/mace_gaussian/gm_helper.py R"
         input file       "/scratch/mot/Gau-419395.EIn"
         output file      "/scratch/mot/Gau-419395.EOu"
         message file     "/scratch/mot/Gau-419395.EMs"
         fchk file        "/scratch/mot/Gau-419395.EFC"
         mat. el file     "/scratch/mot/Gau-419395.EUF"
 Recovered energy= -229.106657277     dipole=      0.236307911513     -0.174568596434      0.000002915767
 Energy=    -229.106657     NIter=   0.
 Dipole moment=       0.236308      -0.174569       0.000003
 -------------------------------------------------------------------
 Center     Atomic                   Forces (Hartrees/Bohr)
 Number     Number              X              Y              Z
 -------------------------------------------------------------------
      1        6          -0.000178842   -0.000787407    0.000000008
      2        1           0.000551792   -0.000362555    0.000000063
      3        1          -0.000114819    0.000758462   -0.000555611
      4        1          -0.000114791    0.000758509    0.000555529
      5        6          -0.000691491   -0.000236692    0.000000022
      6        8           0.000334968   -0.000297306   -0.000000033
      7        8           0.000188915    0.000095464    0.000000015
      8        1           0.000024269    0.000071524    0.000000007
 -------------------------------------------------------------------
 Cartesian Forces:  Max     0.000787407 RMS     0.000390911
 NDeriv=     18 NFrqRd=  0 NDerD0=      0 MskFDP=       0 MskDFD=       0 MskDF0=       0
 Re-enter D2Numr:  normal mode     12 step-down number 1
 Standard basis: STO-3G (5D, 7F)
    24 basis functions,    72 primitive gaussians,    24 cartesian basis functions
    16 alpha electrons       16 beta electrons
       nuclear repulsion energy       121.4615258983 Hartrees.
 NAtoms=    8 NActive=    8 NUniq=    8 SFac= 1.00D+00 NAtFMM=   60 NAOKFM=F Big=F
 Integral buffers will be    131072 words long.
 Raffenetti 1 integral format.
 Two-electron integral symmetry is turned off.
 External calculation of energy, first and second derivatives.
 Running external command "/home/mot/mace_gaussian/gm_helper.py R"
         input file       "/scratch/mot/Gau-419395.EIn"
         output file      "/scratch/mot/Gau-419395.EOu"
         message file     "/scratch/mot/Gau-419395.EMs"
         fchk file        "/scratch/mot/Gau-419395.EFC"
         mat. el file     "/scratch/mot/Gau-419395.EUF"
 Recovered energy= -229.106657174     dipole=      0.235704895338     -0.173196761917     -0.001330701530
 Energy=    -229.106657     NIter=   0.
 Dipole moment=       0.235705      -0.173197      -0.001331
 -------------------------------------------------------------------
 Center     Atomic                   Forces (Hartrees/Bohr)
 Number     Number              X              Y              Z
 -------------------------------------------------------------------
      1        6           0.000006252    0.000006005   -0.000917575
      2        1          -0.000004288   -0.000005942    0.001089796
      3        1          -0.000570644   -0.000470461    0.000082459
      4        1           0.000569158    0.000470435    0.000076979
      5        6           0.000000098    0.000000185   -0.000478777
      6        8          -0.000000123    0.000000089    0.000060734
      7        8          -0.000000486   -0.000000268    0.000072289
      8        1           0.000000032   -0.000000043    0.000014093
 -------------------------------------------------------------------
 Cartesian Forces:  Max     0.001089796 RMS     0.000374890
 NDeriv=     18 NFrqRd=  0 NDerD0=      0 MskFDP=       0 MskDFD=       0 MskDF0=       0
 Re-enter D2Numr:  normal mode     13 step-up   number 1
 Standard basis: STO-3G (5D, 7F)
    24 basis functions,    72 primitive gaussians,    24 cartesian basis functions
    16 alpha electrons       16 beta electrons
       nuclear repulsion energy       121.4615257480 Hartrees.
 NAtoms=    8 NActive=    8 NUniq=    8 SFac= 1.00D+00 NAtFMM=   60 NAOKFM=F Big=F
 Integral buffers will be    131072 words long.
 Raffenetti 1 integral format.
 Two-electron integral symmetry is turned off.
 External calculation of energy, first and second derivatives.
 Running external command "/home/mot/mace_gaussian/gm_helper.py R"
         input file       "/scratch/mot/Gau-419395.EIn"
         output file      "/scratch/mot/Gau-419395.EOu"
         message file     "/scratch/mot/Gau-419395.EMs"
         fchk file        "/scratch/mot/Gau-419395.EFC"
         mat. el file     "/scratch/mot/Gau-419395.EUF"
 Recovered energy= -229.106657174     dipole=      0.235704818439     -0.173196796556      0.001336517070
 Energy=    -229.106657     NIter=   0.
 Dipole moment=       0.235705      -0.173197       0.001337
 -------------------------------------------------------------------
 Center     Atomic                   Forces (Hartrees/Bohr)
 Number     Number              X              Y              Z
 -------------------------------------------------------------------
      1        6           0.000006076    0.000006039    0.000917565
      2        1          -0.000004243   -0.000006077   -0.001089763
      3        1           0.000569192    0.000470508   -0.000077065
      4        1          -0.000570624   -0.000470446   -0.000082405
      5        6           0.000000240    0.000000299    0.000478797
      6        8          -0.000000126    0.000000034   -0.000060788
      7        8          -0.000000541   -0.000000295   -0.000072259
      8        1           0.000000026   -0.000000061   -0.000014082
 -------------------------------------------------------------------
 Cartesian Forces:  Max     0.001089763 RMS     0.000374890
 NDeriv=     18 NFrqRd=  0 NDerD0=      0 MskFDP=       0 MskDFD=       0 MskDF0=       0
 Re-enter D2Numr:  normal mode     13 step-down number 1
 Standard basis: STO-3G (5D, 7F)
    24 basis functions,    72 primitive gaussians,    24 cartesian basis functions
    16 alpha electrons       16 beta electrons
       nuclear repulsion energy       121.5092489272 Hartrees.
 NAtoms=    8 NActive=    8 NUniq=    8 SFac= 1.00D+00 NAtFMM=   60 NAOKFM=F Big=F
 Integral buffers will be    131072 words long.
 Raffenetti 1 integral format.
 Two-electron integral symmetry is turned off.
 External calculation of energy, first and second derivatives.
 Running external command "/home/mot/mace_gaussian/gm_helper.py R"
         input file       "/scratch/mot/Gau-419395.EIn"
         output file      "/scratch/mot/Gau-419395.EOu"
         message file     "/scratch/mot/Gau-419395.EMs"
         fchk file        "/scratch/mot/Gau-419395.EFC"
         mat. el file     "/scratch/mot/Gau-419395.EUF"
 Recovered energy= -229.106648576     dipole=      0.233903521209     -0.168677626598      0.000002893449
 Energy=    -229.106649     NIter=   0.
 Dipole moment=       0.233904      -0.168678       0.000003
 -------------------------------------------------------------------
 Center     Atomic                   Forces (Hartrees/Bohr)
 Number     Number              X              Y              Z
 -------------------------------------------------------------------
      1        6          -0.000593464    0.000375504   -0.000000001
      2        1           0.000152236   -0.000107662    0.000000019
      3        1          -0.000071656    0.000070376   -0.000040696
      4        1          -0.000071653    0.000070350    0.000040672
      5        6           0.003668798   -0.005661801    0.000000003
      6        8          -0.002631436    0.004965106   -0.000000020
      7        8          -0.000346864    0.000639937    0.000000016
      8        1          -0.000105962   -0.000351810    0.000000006
 -------------------------------------------------------------------
 Cartesian Forces:  Max     0.005661801 RMS     0.001806344
 NDeriv=     18 NFrqRd=  0 NDerD0=      0 MskFDP=       0 MskDFD=       0 MskDF0=       0
 Re-enter D2Numr:  normal mode     14 step-up   number 1
 Standard basis: STO-3G (5D, 7F)
    24 basis functions,    72 primitive gaussians,    24 cartesian basis functions
    16 alpha electrons       16 beta electrons
       nuclear repulsion energy       121.4144899786 Hartrees.
 NAtoms=    8 NActive=    8 NUniq=    8 SFac= 1.00D+00 NAtFMM=   60 NAOKFM=F Big=F
 Integral buffers will be    131072 words long.
 Raffenetti 1 integral format.
 Two-electron integral symmetry is turned off.
 External calculation of energy, first and second derivatives.
 Running external command "/home/mot/mace_gaussian/gm_helper.py R"
         input file       "/scratch/mot/Gau-419395.EIn"
         output file      "/scratch/mot/Gau-419395.EOu"
         message file     "/scratch/mot/Gau-419395.EMs"
         fchk file        "/scratch/mot/Gau-419395.EFC"
         mat. el file     "/scratch/mot/Gau-419395.EUF"
 Recovered energy= -229.106648894     dipole=      0.237516513323     -0.177692225957      0.000002923190
 Energy=    -229.106649     NIter=   0.
 Dipole moment=       0.237517      -0.177692       0.000003
 -------------------------------------------------------------------
 Center     Atomic                   Forces (Hartrees/Bohr)
 Number     Number              X              Y              Z
 -------------------------------------------------------------------
      1        6           0.000602475   -0.000376882   -0.000000007
      2        1          -0.000152353    0.000107588    0.000000013
      3        1           0.000072215   -0.000070501    0.000040374
      4        1           0.000072197   -0.000070533   -0.000040383
      5        6          -0.003612473    0.005541212    0.000000017
      6        8           0.002568628   -0.004836642   -0.000000034
      7        8           0.000342104   -0.000644791    0.000000014
      8        1           0.000107207    0.000350549    0.000000005
 -------------------------------------------------------------------
 Cartesian Forces:  Max     0.005541212 RMS     0.001767491
 NDeriv=     18 NFrqRd=  0 NDerD0=      0 MskFDP=       0 MskDFD=       0 MskDF0=       0
 Re-enter D2Numr:  normal mode     14 step-down number 1
 Standard basis: STO-3G (5D, 7F)
    24 basis functions,    72 primitive gaussians,    24 cartesian basis functions
    16 alpha electrons       16 beta electrons
       nuclear repulsion energy       121.5237118393 Hartrees.
 NAtoms=    8 NActive=    8 NUniq=    8 SFac= 1.00D+00 NAtFMM=   60 NAOKFM=F Big=F
 Integral buffers will be    131072 words long.
 Raffenetti 1 integral format.
 Two-electron integral symmetry is turned off.
 External calculation of energy, first and second derivatives.
 Running external command "/home/mot/mace_gaussian/gm_helper.py R"
         input file       "/scratch/mot/Gau-419395.EIn"
         output file      "/scratch/mot/Gau-419395.EOu"
         message file     "/scratch/mot/Gau-419395.EMs"
         fchk file        "/scratch/mot/Gau-419395.EFC"
         mat. el file     "/scratch/mot/Gau-419395.EUF"
 Recovered energy= -229.106606865     dipole=      0.236064492045     -0.172901631651      0.000002901704
 Energy=    -229.106607     NIter=   0.
 Dipole moment=       0.236064      -0.172902       0.000003
 -------------------------------------------------------------------
 Center     Atomic                   Forces (Hartrees/Bohr)
 Number     Number              X              Y              Z
 -------------------------------------------------------------------
      1        6          -0.003646795    0.001999611   -0.000000283
      2        1           0.001396073    0.002590029   -0.000000105
      3        1           0.001056001   -0.002297836   -0.003541577
      4        1           0.001056087   -0.002297680    0.003541966
      5        6           0.000141567    0.000053535    0.000000006
      6        8           0.000003885   -0.000039218   -0.000000027
      7        8          -0.000021120    0.000002987    0.000000015
      8        1           0.000014302   -0.000011428    0.000000005
 -------------------------------------------------------------------
 Cartesian Forces:  Max     0.003646795 RMS     0.001631183
 NDeriv=     18 NFrqRd=  0 NDerD0=      0 MskFDP=       0 MskDFD=       0 MskDF0=       0
 Re-enter D2Numr:  normal mode     15 step-up   number 1
 Standard basis: STO-3G (5D, 7F)
    24 basis functions,    72 primitive gaussians,    24 cartesian basis functions
    16 alpha electrons       16 beta electrons
       nuclear repulsion energy       121.4002079365 Hartrees.
 NAtoms=    8 NActive=    8 NUniq=    8 SFac= 1.00D+00 NAtFMM=   60 NAOKFM=F Big=F
 Integral buffers will be    131072 words long.
 Raffenetti 1 integral format.
 Two-electron integral symmetry is turned off.
 External calculation of energy, first and second derivatives.
 Running external command "/home/mot/mace_gaussian/gm_helper.py R"
         input file       "/scratch/mot/Gau-419395.EIn"
         output file      "/scratch/mot/Gau-419395.EOu"
         message file     "/scratch/mot/Gau-419395.EMs"
         fchk file        "/scratch/mot/Gau-419395.EFC"
         mat. el file     "/scratch/mot/Gau-419395.EUF"
 Recovered energy= -229.106608302     dipole=      0.235309530277     -0.173475448578      0.000002913162
 Energy=    -229.106608     NIter=   0.
 Dipole moment=       0.235310      -0.173475       0.000003
 -------------------------------------------------------------------
 Center     Atomic                   Forces (Hartrees/Bohr)
 Number     Number              X              Y              Z
 -------------------------------------------------------------------
      1        6           0.003547291   -0.001894047    0.000000256
      2        1          -0.001366630   -0.002531855    0.000000135
      3        1          -0.001020804    0.002216298    0.003414831
      4        1          -0.001020900    0.002216085   -0.003415230
      5        6          -0.000142882   -0.000054395    0.000000015
      6        8          -0.000003343    0.000039264   -0.000000027
      7        8           0.000021598   -0.000002883    0.000000015
      8        1          -0.000014329    0.000011532    0.000000006
 -------------------------------------------------------------------
 Cartesian Forces:  Max     0.003547291 RMS     0.001577268
 NDeriv=     18 NFrqRd=  0 NDerD0=      0 MskFDP=       0 MskDFD=       0 MskDF0=       0
 Re-enter D2Numr:  normal mode     15 step-down number 1
 Standard basis: STO-3G (5D, 7F)
    24 basis functions,    72 primitive gaussians,    24 cartesian basis functions
    16 alpha electrons       16 beta electrons
       nuclear repulsion energy       121.4619486078 Hartrees.
 NAtoms=    8 NActive=    8 NUniq=    8 SFac= 1.00D+00 NAtFMM=   60 NAOKFM=F Big=F
 Integral buffers will be    131072 words long.
 Raffenetti 1 integral format.
 Two-electron integral symmetry is turned off.
 External calculation of energy, first and second derivatives.
 Running external command "/home/mot/mace_gaussian/gm_helper.py R"
         input file       "/scratch/mot/Gau-419395.EIn"
         output file      "/scratch/mot/Gau-419395.EOu"
         message file     "/scratch/mot/Gau-419395.EMs"
         fchk file        "/scratch/mot/Gau-419395.EFC"
         mat. el file     "/scratch/mot/Gau-419395.EUF"
 Recovered energy= -229.106604837     dipole=      0.235710362050     -0.173182351432     -0.000022211313
 Energy=    -229.106605     NIter=   0.
 Dipole moment=       0.235710      -0.173182      -0.000022
 -------------------------------------------------------------------
 Center     Atomic                   Forces (Hartrees/Bohr)
 Number     Number              X              Y              Z
 -------------------------------------------------------------------
      1        6          -0.000054253    0.000115478   -0.007415508
      2        1          -0.000000178   -0.000000939   -0.000109528
      3        1          -0.001204335    0.002565003    0.003732093
      4        1           0.001258012   -0.002679115    0.003892922
      5        6           0.000000309   -0.000000726   -0.000093679
      6        8           0.000000234    0.000000141   -0.000017616
      7        8           0.000000239    0.000000121    0.000004886
      8        1          -0.000000029    0.000000037    0.000006431
 -------------------------------------------------------------------
 Cartesian Forces:  Max     0.007415508 RMS     0.002050411
 NDeriv=     18 NFrqRd=  0 NDerD0=      0 MskFDP=       0 MskDFD=       0 MskDF0=       0
 Re-enter D2Numr:  normal mode     16 step-up   number 1
 Standard basis: STO-3G (5D, 7F)
    24 basis functions,    72 primitive gaussians,    24 cartesian basis functions
    16 alpha electrons       16 beta electrons
       nuclear repulsion energy       121.4619524524 Hartrees.
 NAtoms=    8 NActive=    8 NUniq=    8 SFac= 1.00D+00 NAtFMM=   60 NAOKFM=F Big=F
 Integral buffers will be    131072 words long.
 Raffenetti 1 integral format.
 Two-electron integral symmetry is turned off.
 External calculation of energy, first and second derivatives.
 Running external command "/home/mot/mace_gaussian/gm_helper.py R"
         input file       "/scratch/mot/Gau-419395.EIn"
         output file      "/scratch/mot/Gau-419395.EOu"
         message file     "/scratch/mot/Gau-419395.EMs"
         fchk file        "/scratch/mot/Gau-419395.EFC"
         mat. el file     "/scratch/mot/Gau-419395.EUF"
 Recovered energy= -229.106604837     dipole=      0.235710525738     -0.173182330648      0.000028026371
 Energy=    -229.106605     NIter=   0.
 Dipole moment=       0.235711      -0.173182       0.000028
 -------------------------------------------------------------------
 Center     Atomic                   Forces (Hartrees/Bohr)
 Number     Number              X              Y              Z
 -------------------------------------------------------------------
      1        6          -0.000054535    0.000115814    0.007415496
      2        1           0.000000093   -0.000000448    0.000109562
      3        1           0.001258012   -0.002679509   -0.003892793
      4        1          -0.001204350    0.002564571   -0.003732250
      5        6           0.000000337   -0.000000724    0.000093699
      6        8           0.000000233    0.000000143    0.000017563
      7        8           0.000000240    0.000000117   -0.000004856
      8        1          -0.000000030    0.000000036   -0.000006421
 -------------------------------------------------------------------
 Cartesian Forces:  Max     0.007415496 RMS     0.002050412
 NDeriv=     18 NFrqRd=  0 NDerD0=      0 MskFDP=       0 MskDFD=       0 MskDF0=       0
 Re-enter D2Numr:  normal mode     16 step-down number 1
 Standard basis: STO-3G (5D, 7F)
    24 basis functions,    72 primitive gaussians,    24 cartesian basis functions
    16 alpha electrons       16 beta electrons
       nuclear repulsion energy       121.4723164029 Hartrees.
 NAtoms=    8 NActive=    8 NUniq=    8 SFac= 1.00D+00 NAtFMM=   60 NAOKFM=F Big=F
 Integral buffers will be    131072 words long.
 Raffenetti 1 integral format.
 Two-electron integral symmetry is turned off.
 External calculation of energy, first and second derivatives.
 Running external command "/home/mot/mace_gaussian/gm_helper.py R"
         input file       "/scratch/mot/Gau-419395.EIn"
         output file      "/scratch/mot/Gau-419395.EOu"
         message file     "/scratch/mot/Gau-419395.EMs"
         fchk file        "/scratch/mot/Gau-419395.EFC"
         mat. el file     "/scratch/mot/Gau-419395.EUF"
 Recovered energy= -229.106602023     dipole=      0.236636298340     -0.172693792083      0.000002898772
 Energy=    -229.106602     NIter=   0.
 Dipole moment=       0.236636      -0.172694       0.000003
 -------------------------------------------------------------------
 Center     Atomic                   Forces (Hartrees/Bohr)
 Number     Number              X              Y              Z
 -------------------------------------------------------------------
      1        6          -0.002157610   -0.007615547    0.000000099
      2        1           0.003155585    0.005647822   -0.000000241
      3        1          -0.000539626    0.001026374    0.001698339
      4        1          -0.000539571    0.001026019   -0.001698203
      5        6           0.000078512   -0.000233748    0.000000012
      6        8          -0.000030343    0.000105667   -0.000000029
      7        8           0.000039399    0.000039358    0.000000016
      8        1          -0.000006346    0.000004055    0.000000006
 -------------------------------------------------------------------
 Cartesian Forces:  Max     0.007615547 RMS     0.002170256
 NDeriv=     18 NFrqRd=  0 NDerD0=      0 MskFDP=       0 MskDFD=       0 MskDF0=       0
 Re-enter D2Numr:  normal mode     17 step-up   number 1
 Standard basis: STO-3G (5D, 7F)
    24 basis functions,    72 primitive gaussians,    24 cartesian basis functions
    16 alpha electrons       16 beta electrons
       nuclear repulsion energy       121.4515969585 Hartrees.
 NAtoms=    8 NActive=    8 NUniq=    8 SFac= 1.00D+00 NAtFMM=   60 NAOKFM=F Big=F
 Integral buffers will be    131072 words long.
 Raffenetti 1 integral format.
 Two-electron integral symmetry is turned off.
 External calculation of energy, first and second derivatives.
 Running external command "/home/mot/mace_gaussian/gm_helper.py R"
         input file       "/scratch/mot/Gau-419395.EIn"
         output file      "/scratch/mot/Gau-419395.EOu"
         message file     "/scratch/mot/Gau-419395.EMs"
         fchk file        "/scratch/mot/Gau-419395.EFC"
         mat. el file     "/scratch/mot/Gau-419395.EUF"
 Recovered energy= -229.106603851     dipole=      0.234745589848     -0.173719879966      0.000002918604
 Energy=    -229.106604     NIter=   0.
 Dipole moment=       0.234746      -0.173720       0.000003
 -------------------------------------------------------------------
 Center     Atomic                   Forces (Hartrees/Bohr)
 Number     Number              X              Y              Z
 -------------------------------------------------------------------
      1        6           0.001966456    0.007356006   -0.000000085
      2        1          -0.002990363   -0.005358285    0.000000260
      3        1           0.000551426   -0.001041824   -0.001730788
      4        1           0.000551354   -0.001041518    0.001730611
      5        6          -0.000077692    0.000235476    0.000000009
      6        8           0.000030889   -0.000106300   -0.000000025
      7        8          -0.000038413   -0.000039746    0.000000014
      8        1           0.000006343   -0.000003809    0.000000005
 -------------------------------------------------------------------
 Cartesian Forces:  Max     0.007356006 RMS     0.002086434
 NDeriv=     18 NFrqRd=  0 NDerD0=      0 MskFDP=       0 MskDFD=       0 MskDF0=       0
 Re-enter D2Numr:  normal mode     17 step-down number 1
 Standard basis: STO-3G (5D, 7F)
    24 basis functions,    72 primitive gaussians,    24 cartesian basis functions
    16 alpha electrons       16 beta electrons
       nuclear repulsion energy       121.4083701014 Hartrees.
 NAtoms=    8 NActive=    8 NUniq=    8 SFac= 1.00D+00 NAtFMM=   60 NAOKFM=F Big=F
 Integral buffers will be    131072 words long.
 Raffenetti 1 integral format.
 Two-electron integral symmetry is turned off.
 External calculation of energy, first and second derivatives.
 Running external command "/home/mot/mace_gaussian/gm_helper.py R"
         input file       "/scratch/mot/Gau-419395.EIn"
         output file      "/scratch/mot/Gau-419395.EOu"
         message file     "/scratch/mot/Gau-419395.EMs"
         fchk file        "/scratch/mot/Gau-419395.EFC"
         mat. el file     "/scratch/mot/Gau-419395.EUF"
 Recovered energy= -229.106578206     dipole=      0.233212922551     -0.171742219343      0.000002933874
 Energy=    -229.106578     NIter=   0.
 Dipole moment=       0.233213      -0.171742       0.000003
 -------------------------------------------------------------------
 Center     Atomic                   Forces (Hartrees/Bohr)
 Number     Number              X              Y              Z
 -------------------------------------------------------------------
      1        6           0.000082477   -0.000046993   -0.000000001
      2        1          -0.000002278    0.000002264    0.000000015
      3        1           0.000003545    0.000013462    0.000012811
      4        1           0.000003536    0.000013432   -0.000012829
      5        6          -0.000362485   -0.000065854    0.000000011
      6        8           0.000009426    0.000134517   -0.000000027
      7        8          -0.009029491    0.002085341    0.000000049
      8        1           0.009295269   -0.002136170   -0.000000030
 -------------------------------------------------------------------
 Cartesian Forces:  Max     0.009295269 RMS     0.002715766
 NDeriv=     18 NFrqRd=  0 NDerD0=      0 MskFDP=       0 MskDFD=       0 MskDF0=       0
 Re-enter D2Numr:  normal mode     18 step-up   number 1
 Standard basis: STO-3G (5D, 7F)
    24 basis functions,    72 primitive gaussians,    24 cartesian basis functions
    16 alpha electrons       16 beta electrons
       nuclear repulsion energy       121.5159774635 Hartrees.
 NAtoms=    8 NActive=    8 NUniq=    8 SFac= 1.00D+00 NAtFMM=   60 NAOKFM=F Big=F
 Integral buffers will be    131072 words long.
 Raffenetti 1 integral format.
 Two-electron integral symmetry is turned off.
 External calculation of energy, first and second derivatives.
 Running external command "/home/mot/mace_gaussian/gm_helper.py R"
         input file       "/scratch/mot/Gau-419395.EIn"
         output file      "/scratch/mot/Gau-419395.EOu"
         message file     "/scratch/mot/Gau-419395.EMs"
         fchk file        "/scratch/mot/Gau-419395.EFC"
         mat. el file     "/scratch/mot/Gau-419395.EUF"
 Recovered energy= -229.106573641     dipole=      0.238288265985     -0.174543485153      0.000002882784
 Energy=    -229.106574     NIter=   0.
 Dipole moment=       0.238288      -0.174543       0.000003
 -------------------------------------------------------------------
 Center     Atomic                   Forces (Hartrees/Bohr)
 Number     Number              X              Y              Z
 -------------------------------------------------------------------
      1        6          -0.000081574    0.000045783   -0.000000007
      2        1           0.000002101   -0.000002041    0.000000017
      3        1          -0.000003629   -0.000013228   -0.000012729
      4        1          -0.000003635   -0.000013256    0.000012714
      5        6           0.000360308    0.000064152    0.000000009
      6        8          -0.000009770   -0.000135549   -0.000000027
      7        8           0.009712409   -0.002260168   -0.000000021
      8        1          -0.009976209    0.002314308    0.000000043
 -------------------------------------------------------------------
 Cartesian Forces:  Max     0.009976209 RMS     0.002918917
 NDeriv=     18 NFrqRd=  0 NDerD0=      0 MskFDP=       0 MskDFD=       0 MskDF0=       0
 Re-enter D2Numr:  normal mode     18 step-down number 1
 Max difference between Dipole analytic and numerical normal mode 1st derivatives:
 I=     2 ID=    14 Difference=    2.1204449387D-01
 Max difference between Dipole analytic and numerical normal mode 2nd derivatives:
 I=     2 ID=    18 Difference=    2.5069510878D-01
 Recovering previously computed normal modes.
 Harmonic frequencies (cm**-1), IR intensities (KM/Mole), Raman scattering
 activities (A**4/AMU), depolarization ratios for plane and unpolarized
 incident light, reduced masses (AMU), force constants (mDyne/A),
 and normal coordinates:
                      1                      2                      3
                      A                      A                      A
 Frequencies --     72.8820               422.1861               543.7716
 Red. masses --      1.0856                 2.8685                 1.4816
 Frc consts  --      0.0034                 0.3012                 0.2581
 IR Inten    --      1.0166                 7.1401                35.9621
  Atom  AN      X      Y      Z        X      Y      Z        X      Y      Z
     1   6    -0.00  -0.00   0.00    -0.07  -0.18   0.00    -0.00   0.00   0.01
     2   1     0.00   0.00   0.53     0.37  -0.43  -0.00     0.00   0.00   0.25
     3   1     0.04   0.50  -0.32    -0.34  -0.33   0.01     0.35  -0.01   0.13
     4   1    -0.04  -0.50  -0.32    -0.34  -0.33  -0.01    -0.35   0.01   0.13
     5   6     0.00   0.00   0.01    -0.01   0.15  -0.00    -0.00  -0.00  -0.20
     6   8    -0.00   0.00  -0.05    -0.15   0.08   0.00     0.00   0.00   0.05
     7   8     0.00   0.00   0.05     0.22   0.02  -0.00     0.00  -0.00   0.00
     8   1     0.00  -0.00  -0.01     0.15  -0.25   0.00     0.00  -0.00   0.79
                      4                      5                      6
                      A                      A                      A
 Frequencies --    588.3401               662.9494               875.3851
 Red. masses --      4.2225                 1.5474                 3.7090
 Frc consts  --      0.8611                 0.4007                 1.6746
 IR Inten    --     30.3178                83.2380                 4.7176
  Atom  AN      X      Y      Z        X      Y      Z        X      Y      Z
     1   6    -0.26   0.07  -0.00    -0.00   0.00   0.04     0.31  -0.04   0.00
     2   1    -0.38   0.13  -0.00    -0.00   0.00  -0.14     0.41  -0.09  -0.00
     3   1    -0.20   0.09  -0.00    -0.28   0.05  -0.09     0.36  -0.03   0.00
     4   1    -0.20   0.09   0.00     0.28  -0.05  -0.09     0.36  -0.03  -0.00
     5   6    -0.14  -0.00   0.00    -0.00   0.00   0.16    -0.12   0.11  -0.00
     6   8     0.26   0.18  -0.00     0.00   0.00  -0.07    -0.06   0.18   0.00
     7   8     0.09  -0.20   0.00    -0.00  -0.00  -0.11    -0.13  -0.19   0.00
     8   1    -0.04  -0.71  -0.00     0.00  -0.00   0.87    -0.22  -0.55  -0.00
                      7                      8                      9
                      A                      A                      A
 Frequencies --   1000.0399              1064.0832              1215.9796
 Red. masses --      1.5914                 1.8417                 1.9008
 Frc consts  --      0.9377                 1.2286                 1.6559
 IR Inten    --     26.9622                 6.7436               135.3610
  Atom  AN      X      Y      Z        X      Y      Z        X      Y      Z
     1   6    -0.00   0.17  -0.00     0.00  -0.00  -0.17    -0.04  -0.08   0.00
     2   1     0.63  -0.20  -0.00     0.00   0.00   0.38    -0.36   0.11   0.00
     3   1    -0.45  -0.17   0.08     0.58  -0.18   0.15     0.06   0.12  -0.09
     4   1    -0.45  -0.17  -0.08    -0.58   0.18   0.15     0.06   0.12   0.09
     5   6     0.07   0.02   0.00     0.00   0.00   0.21     0.12   0.09  -0.00
     6   8     0.03  -0.03   0.00    -0.00   0.00  -0.04    -0.05   0.08   0.00
     7   8    -0.06  -0.09   0.00    -0.00  -0.00  -0.03    -0.01  -0.17  -0.00
     8   1     0.01   0.21  -0.00    -0.00  -0.00   0.01     0.22   0.83   0.00
                     10                     11                     12
                      A                      A                      A
 Frequencies --   1339.6945              1412.2896              1460.5459
 Red. masses --      1.6298                 1.7907                 1.0552
 Frc consts  --      1.7235                 2.1043                 1.3262
 IR Inten    --      9.5249                59.3233                22.0709
  Atom  AN      X      Y      Z        X      Y      Z        X      Y      Z
     1   6     0.05  -0.04   0.00     0.18  -0.01   0.00    -0.01  -0.04   0.00
     2   1    -0.41   0.21  -0.00    -0.36   0.29  -0.00     0.37  -0.24   0.00
     3   1    -0.35   0.11  -0.21    -0.52  -0.08  -0.17    -0.08   0.50  -0.37
     4   1    -0.35   0.11   0.21    -0.52  -0.08   0.17    -0.08   0.50   0.37
     5   6     0.17   0.11  -0.00    -0.15  -0.10   0.00    -0.04  -0.01   0.00
     6   8    -0.01  -0.05  -0.00     0.00   0.04  -0.00     0.01  -0.01  -0.00
     7   8    -0.07   0.00   0.00     0.05   0.01  -0.00     0.01   0.00  -0.00
     8   1    -0.20  -0.58  -0.00     0.11   0.31  -0.00     0.02   0.05   0.00
                     13                     14                     15
                      A                      A                      A
 Frequencies --   1466.3969              1843.6640              3080.4373
 Red. masses --      1.0442                 9.4429                 1.0366
 Frc consts  --      1.3229                18.9112                 5.7955
 IR Inten    --     17.3382               229.7426                 2.2085
  Atom  AN      X      Y      Z        X      Y      Z        X      Y      Z
     1   6     0.00  -0.00  -0.05     0.06  -0.04  -0.00    -0.04   0.02  -0.00
     2   1    -0.00   0.00   0.72    -0.19   0.13  -0.00     0.21   0.38  -0.00
     3   1    -0.38  -0.31   0.05     0.09  -0.09   0.05     0.15  -0.34  -0.52
     4   1     0.38   0.31   0.05     0.09  -0.09  -0.05     0.15  -0.34   0.52
     5   6    -0.00  -0.00  -0.03    -0.38   0.59   0.00     0.00   0.00  -0.00
     6   8     0.00   0.00   0.00     0.21  -0.39  -0.00     0.00  -0.00  -0.00
     7   8     0.00   0.00   0.00     0.03  -0.05  -0.00    -0.00   0.00   0.00
     8   1     0.00   0.00   0.01     0.13   0.44  -0.00     0.00  -0.00  -0.00
                     16                     17                     18
                      A                      A                      A
 Frequencies --   3145.6403              3189.7947              3764.1456
 Red. masses --      1.1000                 1.1038                 1.0640
 Frc consts  --      6.4131                 6.6171                 8.8826
 IR Inten    --      0.0061                11.2775                81.9717
  Atom  AN      X      Y      Z        X      Y      Z        X      Y      Z
     1   6     0.00  -0.00  -0.09    -0.02  -0.09   0.00     0.00  -0.00   0.00
     2   1    -0.00  -0.00  -0.02     0.44   0.79  -0.00    -0.00   0.00  -0.00
     3   1    -0.18   0.39   0.56    -0.08   0.15   0.25     0.00   0.00   0.00
     4   1     0.18  -0.39   0.56    -0.08   0.15  -0.25     0.00   0.00  -0.00
     5   6    -0.00  -0.00  -0.00     0.00  -0.00   0.00    -0.00  -0.00   0.00
     6   8     0.00  -0.00  -0.00    -0.00   0.00  -0.00     0.00   0.00   0.00
     7   8    -0.00   0.00   0.00     0.00   0.00   0.00    -0.06   0.01   0.00
     8   1     0.00   0.00   0.00    -0.00   0.00   0.00     0.97  -0.22  -0.00

 -------------------
 - Thermochemistry -
 -------------------
 Temperature   298.150 Kelvin.  Pressure   1.00000 Atm.
 Atom     1 has atomic number  6 and mass  12.00000
 Atom     2 has atomic number  1 and mass   1.00783
 Atom     3 has atomic number  1 and mass   1.00783
 Atom     4 has atomic number  1 and mass   1.00783
 Atom     5 has atomic number  6 and mass  12.00000
 Atom     6 has atomic number  8 and mass  15.99491
 Atom     7 has atomic number  8 and mass  15.99491
 Atom     8 has atomic number  1 and mass   1.00783
 Molecular mass:    60.02113 amu.
 Principal axes and moments of inertia in atomic units:
                           1         2         3
     Eigenvalues --   157.88371 189.78088 336.54726
           X            0.99836   0.05729   0.00000
           Y           -0.05729   0.99836  -0.00000
           Z           -0.00000   0.00000   1.00000
 This molecule is an asymmetric top.
 Rotational symmetry number  1.
 Rotational temperatures (Kelvin)      0.54859     0.45639     0.25736
 Rotational constants (GHZ):          11.43083     9.50961     5.36252
 Zero-point vibrational energy     162382.5 (Joules/Mol)
                                   38.81034 (Kcal/Mol)
 Warning -- explicit consideration of   4 degrees of freedom as
           vibrations may cause significant error
 Vibrational temperatures:    104.86   607.43   782.37   846.49   953.84
          (Kelvin)           1259.48  1438.83  1530.98  1749.52  1927.52
                             2031.97  2101.40  2109.82  2652.62  4432.06
                             4525.87  4589.40  5415.77
 
 Zero-point correction=                           0.061848 (Hartree/Particle)
 Thermal correction to Energy=                    0.066415
 Thermal correction to Enthalpy=                  0.067360
 Thermal correction to Gibbs Free Energy=         0.034675
 Sum of electronic and zero-point Energies=           -229.044823
 Sum of electronic and thermal Energies=              -229.040256
 Sum of electronic and thermal Enthalpies=            -229.039312
 Sum of electronic and thermal Free Energies=         -229.071997
 
                     E (Thermal)             CV                S
                      KCal/Mol        Cal/Mol-Kelvin    Cal/Mol-Kelvin
 Total                   41.676             14.304             68.790
 Electronic               0.000              0.000              0.000
 Translational            0.889              2.981             38.196
 Rotational               0.889              2.981             23.826
 Vibrational             39.899              8.342              6.768
 Vibration     1          0.599              1.967              4.074
 Vibration     2          0.785              1.422              0.885
 Vibration     3          0.899              1.153              0.557
 Vibration     4          0.946              1.057              0.470
                       Q            Log10(Q)             Ln(Q)
 Total Bot       0.112363D-15        -15.949378        -36.724800
 Total V=0       0.315354D+13         12.498798         28.779546
 Vib (Bot)       0.171021D-27        -27.766952        -63.935769
 Vib (Bot)    1  0.282869D+01          0.451585          1.039813
 Vib (Bot)    2  0.415209D+00         -0.381733         -0.878974
 Vib (Bot)    3  0.290322D+00         -0.537120         -1.236764
 Vib (Bot)    4  0.256836D+00         -0.590343         -1.359316
 Vib (V=0)       0.479981D+01          0.681224          1.568577
 Vib (V=0)    1  0.337254D+01          0.527957          1.215666
 Vib (V=0)    2  0.114992D+01          0.060668          0.139694
 Vib (V=0)    3  0.107818D+01          0.032689          0.075270
 Vib (V=0)    4  0.106211D+01          0.026169          0.060255
 Electronic      0.100000D+01          0.000000          0.000000
 Translational   0.182772D+08          7.261910         16.721166
 Rotational      0.359471D+05          4.555664         10.489803
 ***** Axes restored to original set *****
 -------------------------------------------------------------------
 Center     Atomic                   Forces (Hartrees/Bohr)
 Number     Number              X              Y              Z
 -------------------------------------------------------------------
      1        6          -0.000000026    0.000000030   -0.000000033
      2        1          -0.000000034    0.000000003   -0.000000021
      3        1           0.000000089   -0.000000026    0.000000004
      4        1          -0.000000014   -0.000000032    0.000000052
      5        6           0.000000014    0.000000008    0.000000048
      6        8           0.000000027   -0.000000038   -0.000000031
      7        8          -0.000000044    0.000000083    0.000000007
      8        1          -0.000000013   -0.000000027   -0.000000026
 -------------------------------------------------------------------
 Cartesian Forces:  Max     0.000000089 RMS     0.000000037

 **********************************************************************

             Second-order Perturbative Anharmonic Analysis

 **********************************************************************

     ==================================================
                      Reference System
     ==================================================

 NOTE: The system is set in Eckart orientation for the anharmonic
       treatment.
 
 Atom           X                  Y                  Z
 ----------------------------------------------------------------
  C       1.4534499319078   -0.0617863328529   -0.0000001892677
  H       1.9252019217430    0.9150738785055   -0.0000428435262
  H       1.7589823078660   -0.6287542767776   -0.8787511343322
  H       1.7589843112715   -0.6286732320608    0.8788029224784
  C      -0.0365328794166    0.1011055080640   -0.0000011187023
  O      -0.6348708947231    1.1427720450864    0.0000002351347
  O      -0.6691224341862   -1.0937782231559   -0.0000000347756
  H      -1.6188367217270   -0.9033805557683    0.0000034493096
 ----------------------------------------------------------------

     ==================================================
               Analysis of the Rotor Symmetry
     ==================================================

 Framework Group : C1  
 Rotor Type      : Asymmetric Top
 Asymm. param.   : Kappa =  0.366802
 Inertia moments : X=   157.88371 , Y=   189.78088 , Z=   336.54726
 Representation  : IIIr Representation, Ix < Iy < Iz

 Axes Definition for the Symmetric-Top Representation
 ----------------------------------------------------
 Axis Z automatically chosen to be collinear with Z from Eckart orient.
 NOTE: In Vibro-rotational analysis, this will be referred to as the
       spectroscopic orientation.

     ==================================================
                   Data Source Definition
     ==================================================

 Main data sources
 -----------------
 Harmonic data taken from: current calculation
 Anharmonic data taken from: current calculation

     ==================================================
           Input Data Extraction and Preparation
     ==================================================

 Data for Harmonic Potential Energy Surface
 ------------------------------------------

 Definition of the model system: Active modes
 --------------------------------------------
 The 18 Active Modes are:
     1     2     3     4     5     6     7     8     9    10    11    12    13
    14    15    16    17    18

 Data for Anharmonic Potential Energy Surface
 --------------------------------------------
 WARNING: Unreliable CUBIC force constant i=     4,j=     4,k=     7
 - Fjik and Fijk differ by   15.8%
 WARNING: Unreliable CUBIC force constant i=     2,j=     4,k=    15
 - Fjik and MEAN(Fijk,Fjik) differ by   18.7%

 Data for Electric Dipole
 ------------------------
 Property available.
 WARNING: Unreliable ELECTRIC DIPOLE derivatives i=     6,j=     8
 - Pji(X) is NULL while Pij(X) =     -0.00381508

     ==================================================
        Vibro-Rotational Analysis Based on Symmetry
     ==================================================

 Input/Output information
 ------------------------
 Normal modes will be PRINTED in DESCENDING order (imag. freq. first)
   and sorted by irreducible representation
 The connection between this new numbering (A) and the one used before
   (H) is reported in the present equivalency table:
 ----+------+------+------+------+------+------+------+------+------+
 (H) |     1|     2|     3|     4|     5|     6|     7|     8|     9|
 (A) |    18|    17|    16|    15|    14|    13|    12|    11|    10|
 ----+------+------+------+------+------+------+------+------+------+
 ----+------+------+------+------+------+------+------+------+------+
 (H) |    10|    11|    12|    13|    14|    15|    16|    17|    18|
 (A) |     9|     8|     7|     6|     5|     4|     3|     2|     1|
 ----+------+------+------+------+------+------+------+------+------+
 
 Normal modes will be READ in ASCENDING order (imag. freq. first)

 TIP: To use the same numbering as in the whole output, use the option
      "Print=NMOrder=AscNoIrrep" in the "ReadAnharm section"

 TIP: To use the same numbering for reading and printing, use the option
      "DataSrc=NMOrder=Print" in the "ReadAnharm section"

     ==================================================
                   Coriolis Couplings
     ==================================================

 Coriolis Couplings along the X axis
 -----------------------------------
                1             2             3             4             5 
      1   0.000000D+00
      2   0.000000D+00  0.000000D+00
      3   0.000000D+00  0.579001D-01  0.000000D+00
      4   0.000000D+00  0.000000D+00  0.782836D-02  0.000000D+00
      5   0.000000D+00  0.000000D+00 -0.314057D-01  0.000000D+00  0.000000D+00
      6   0.000000D+00  0.767257D+00  0.000000D+00 -0.105414D+00  0.181514D-01
      7   0.000000D+00  0.000000D+00  0.834064D+00  0.000000D+00  0.000000D+00
      8   0.000000D+00  0.000000D+00 -0.350934D-02  0.000000D+00  0.000000D+00
      9   0.000000D+00  0.000000D+00  0.216960D+00  0.000000D+00  0.000000D+00
     10   0.000000D+00  0.000000D+00 -0.202032D+00  0.000000D+00  0.000000D+00
     11   0.588894D-02 -0.424936D+00  0.000000D+00  0.105821D+00  0.434781D+00
     12   0.000000D+00  0.000000D+00  0.350559D+00  0.000000D+00  0.000000D+00
     13   0.000000D+00  0.000000D+00  0.622476D-02  0.000000D+00  0.000000D+00
     14  -0.131696D+00 -0.155323D+00  0.000000D+00  0.384849D-01 -0.510067D+00
     15   0.000000D+00  0.000000D+00  0.161982D-01  0.000000D+00  0.000000D+00
     16  -0.103355D+00  0.180184D+00  0.000000D+00  0.216885D-01  0.349856D+00
     17   0.000000D+00  0.000000D+00  0.110549D+00  0.000000D+00  0.000000D+00
     18  -0.614156D-02 -0.796199D-01  0.000000D+00 -0.893593D+00  0.128122D+00
                6             7             8             9            10 
      6   0.000000D+00
      7  -0.307939D+00  0.000000D+00
      8   0.793030D-01  0.000000D+00  0.000000D+00
      9  -0.122017D-01  0.000000D+00  0.000000D+00  0.000000D+00
     10  -0.240271D-01  0.000000D+00  0.000000D+00  0.000000D+00  0.000000D+00
     11   0.000000D+00  0.132308D-01 -0.164522D+00  0.256182D+00 -0.258196D+00
     12   0.154062D+00  0.000000D+00  0.000000D+00  0.000000D+00  0.000000D+00
     13  -0.353681D-01  0.000000D+00  0.000000D+00  0.000000D+00  0.000000D+00
     14   0.000000D+00  0.267963D-01  0.588885D-02  0.177450D+00  0.615125D+00
     15   0.248041D-01  0.000000D+00  0.000000D+00  0.000000D+00  0.000000D+00
     16   0.000000D+00 -0.115638D+00 -0.365421D+00  0.470834D+00  0.319234D+00
     17   0.147720D+00  0.000000D+00  0.000000D+00  0.000000D+00  0.000000D+00
     18   0.000000D+00 -0.491175D-01  0.246210D+00  0.236891D+00  0.950473D-01
               11            12            13            14            15 
     11   0.000000D+00
     12  -0.174778D+00  0.000000D+00
     13  -0.894983D-01  0.000000D+00  0.000000D+00
     14   0.000000D+00  0.361062D+00  0.730215D-01  0.000000D+00
     15   0.425360D-01  0.000000D+00  0.000000D+00 -0.209575D+00  0.000000D+00
     16   0.000000D+00 -0.101984D-02  0.241001D+00  0.000000D+00  0.129974D+00
     17   0.187060D+00  0.000000D+00  0.000000D+00  0.194994D-01  0.000000D+00
     18   0.000000D+00  0.630630D-01 -0.158649D+00  0.000000D+00 -0.144380D+00
               16            17            18 
     16   0.000000D+00
     17   0.346110D+00  0.000000D+00
     18   0.000000D+00  0.160579D-01  0.000000D+00

 Coriolis Couplings along the Y axis
 -----------------------------------
                1             2             3             4             5 
      1   0.000000D+00
      2   0.000000D+00  0.000000D+00
      3   0.000000D+00 -0.161321D-01  0.000000D+00
      4   0.000000D+00  0.000000D+00  0.302716D-01  0.000000D+00
      5   0.000000D+00  0.000000D+00 -0.202369D-01  0.000000D+00  0.000000D+00
      6  -0.724115D-02 -0.432912D+00  0.000000D+00  0.186529D+00  0.238040D-02
      7   0.000000D+00  0.000000D+00  0.248598D+00  0.000000D+00  0.000000D+00
      8   0.000000D+00  0.000000D+00  0.600627D+00  0.000000D+00  0.000000D+00
      9   0.000000D+00  0.000000D+00  0.400475D+00  0.000000D+00  0.000000D+00
     10   0.000000D+00  0.000000D+00  0.444829D-01  0.000000D+00  0.000000D+00
     11   0.233916D-01 -0.871454D-01  0.000000D+00  0.605040D+00  0.347357D+00
     12   0.000000D+00  0.000000D+00 -0.348052D+00  0.000000D+00  0.000000D+00
     13   0.000000D+00  0.000000D+00 -0.315073D-01  0.000000D+00  0.000000D+00
     14  -0.751945D+00 -0.711596D-01  0.000000D+00  0.290398D+00 -0.243135D+00
     15   0.000000D+00  0.000000D+00 -0.284020D-01  0.000000D+00  0.000000D+00
     16  -0.621566D+00  0.802359D-01  0.000000D+00 -0.360888D+00  0.325426D+00
     17   0.000000D+00  0.000000D+00 -0.171104D+00  0.000000D+00  0.000000D+00
     18  -0.521048D-01  0.238087D+00  0.000000D+00 -0.364082D-02  0.120707D+00
                6             7             8             9            10 
      6   0.000000D+00
      7  -0.139316D-01  0.000000D+00
      8   0.374665D+00  0.000000D+00  0.000000D+00
      9   0.442086D+00  0.000000D+00  0.000000D+00  0.000000D+00
     10  -0.242235D+00  0.000000D+00  0.000000D+00  0.000000D+00  0.000000D+00
     11   0.000000D+00 -0.332279D+00  0.466112D+00 -0.191427D+00  0.211079D+00
     12   0.355615D+00  0.000000D+00  0.000000D+00  0.000000D+00  0.000000D+00
     13  -0.935549D-01  0.000000D+00  0.000000D+00  0.000000D+00  0.000000D+00
     14   0.000000D+00 -0.266861D+00 -0.802023D-01  0.206125D+00 -0.237930D+00
     15   0.401271D-01  0.000000D+00  0.000000D+00  0.000000D+00  0.000000D+00
     16   0.000000D+00  0.355630D+00  0.198133D+00 -0.376165D+00  0.123519D+00
     17   0.175962D+00  0.000000D+00  0.000000D+00  0.000000D+00  0.000000D+00
     18   0.000000D+00 -0.251447D+00 -0.114848D+00  0.734725D-02 -0.121708D+00
               11            12            13            14            15 
     11   0.000000D+00
     12  -0.124253D+00  0.000000D+00
     13  -0.216939D+00  0.000000D+00  0.000000D+00
     14   0.000000D+00 -0.141944D+00 -0.329842D-01  0.000000D+00
     15  -0.861775D-01  0.000000D+00  0.000000D+00  0.290114D+00  0.000000D+00
     16   0.000000D+00  0.976631D-01  0.134672D+00  0.000000D+00  0.141190D+00
     17  -0.486948D-01  0.000000D+00  0.000000D+00 -0.496543D-01  0.000000D+00
     18   0.000000D+00  0.425187D+00  0.212327D-01  0.000000D+00  0.107663D+00
               16            17            18 
     16   0.000000D+00
     17   0.272553D-01  0.000000D+00
     18   0.000000D+00  0.404204D+00  0.000000D+00

 Coriolis Couplings along the Z axis
 -----------------------------------
                1             2             3             4             5 
      1   0.000000D+00
      2   0.000000D+00  0.000000D+00
      3   0.000000D+00  0.000000D+00  0.000000D+00
      4  -0.189554D-02 -0.404176D-01  0.000000D+00  0.000000D+00
      5  -0.150362D+00 -0.835388D-01  0.000000D+00 -0.498449D-01  0.000000D+00
      6   0.000000D+00  0.000000D+00  0.378076D+00  0.000000D+00  0.000000D+00
      7  -0.425390D-01  0.423009D+00  0.000000D+00  0.563123D-01  0.134995D+00
      8  -0.226048D+00 -0.551278D+00  0.000000D+00  0.168077D+00  0.408445D+00
      9   0.461261D+00 -0.428193D+00  0.000000D+00 -0.236855D-02 -0.526283D+00
     10   0.719370D+00  0.192495D+00  0.000000D+00  0.208721D+00  0.325666D+00
     11   0.000000D+00  0.000000D+00  0.269564D+00  0.000000D+00  0.000000D+00
     12   0.240437D+00 -0.359349D+00  0.000000D+00 -0.567028D+00  0.158828D+00
     13   0.192396D+00  0.634535D-01  0.000000D+00  0.424631D-02  0.898112D-01
     14   0.000000D+00  0.000000D+00  0.153527D+00  0.000000D+00  0.000000D+00
     15   0.251328D+00 -0.447135D-01  0.000000D+00 -0.514625D-01  0.479623D+00
     16   0.000000D+00  0.000000D+00 -0.210751D+00  0.000000D+00  0.000000D+00
     17  -0.164423D+00 -0.193095D+00  0.000000D+00 -0.258420D+00  0.284381D+00
     18   0.000000D+00  0.000000D+00  0.196571D+00  0.000000D+00  0.000000D+00
                6             7             8             9            10 
      6   0.000000D+00
      7   0.000000D+00  0.000000D+00
      8   0.000000D+00  0.503305D+00  0.000000D+00
      9   0.000000D+00  0.241611D+00 -0.103053D+00  0.000000D+00
     10   0.000000D+00  0.117398D+00  0.157528D+00  0.152818D-02  0.000000D+00
     11  -0.359166D+00  0.000000D+00  0.000000D+00  0.000000D+00  0.000000D+00
     12   0.000000D+00 -0.411982D+00 -0.201718D+00 -0.196541D+00 -0.958892D-01
     13   0.000000D+00 -0.904344D-01 -0.174873D+00  0.206598D+00 -0.718422D-01
     14  -0.167580D+00  0.000000D+00  0.000000D+00  0.000000D+00  0.000000D+00
     15   0.000000D+00  0.161214D-01 -0.185624D+00  0.229502D+00  0.141115D+00
     16   0.179874D+00  0.000000D+00  0.000000D+00  0.000000D+00  0.000000D+00
     17   0.000000D+00 -0.120423D+00  0.147137D+00 -0.265052D+00  0.416137D+00
     18   0.333231D+00  0.000000D+00  0.000000D+00  0.000000D+00  0.000000D+00
               11            12            13            14            15 
     11   0.000000D+00
     12   0.000000D+00  0.000000D+00
     13   0.000000D+00  0.899676D-01  0.000000D+00
     14   0.263662D-01  0.000000D+00  0.000000D+00  0.000000D+00
     15   0.000000D+00 -0.366170D+00  0.664605D-01  0.000000D+00  0.000000D+00
     16  -0.719619D-01  0.000000D+00  0.000000D+00 -0.203716D-01  0.000000D+00
     17   0.000000D+00  0.230458D+00  0.604361D-01  0.000000D+00 -0.669461D+00
     18   0.424330D+00  0.000000D+00  0.000000D+00  0.222446D+00  0.000000D+00
               16            17            18 
     16   0.000000D+00
     17   0.000000D+00  0.000000D+00
     18  -0.279274D+00  0.000000D+00  0.000000D+00
 
   70 Coriolis couplings larger than .100D-02 along the X axis
   71 Coriolis couplings larger than .100D-02 along the Y axis
   80 Coriolis couplings larger than .100D-02 along the Z axis

     ==================================================
     Printing Energy derivatives and Coriolis Couplings
     ==================================================

 ........................................................
 :   Reference Energy (a.u.):       -0.229107D+03       :
 :                    (cm-1):       -0.104389D-02       :
 :......................................................:

 ........................................................
 :                   CORIOLIS COUPLINGS                 :
 :......................................................:

    Ax       I      J          Zeta(I,J)

     x       3      2             0.05790
     x       4      3             0.00783
     x       5      3            -0.03141
     x       6      2             0.76726
     x       6      4            -0.10541
     x       6      5             0.01815
     x       7      3             0.83406
     x       7      6            -0.30794
     x       8      3            -0.00351
     x       8      6             0.07930
     x       9      3             0.21696
     x       9      6            -0.01220
     x      10      3            -0.20203
     x      10      6            -0.02403
     x      11      1             0.00589
     x      11      2            -0.42494
     x      11      4             0.10582
     x      11      5             0.43478
     x      11      7             0.01323
     x      11      8            -0.16452
     x      11      9             0.25618
     x      11     10            -0.25820
     x      12      3             0.35056
     x      12      6             0.15406
     x      12     11            -0.17478
     x      13      3             0.00622
     x      13      6            -0.03537
     x      13     11            -0.08950
     x      14      1            -0.13170
     x      14      2            -0.15532
     x      14      4             0.03848
     x      14      5            -0.51007
     x      14      7             0.02680
     x      14      8             0.00589
     x      14      9             0.17745
     x      14     10             0.61513
     x      14     12             0.36106
     x      14     13             0.07302
     x      15      3             0.01620
     x      15      6             0.02480
     x      15     11             0.04254
     x      15     14            -0.20957
     x      16      1            -0.10335
     x      16      2             0.18018
     x      16      4             0.02169
     x      16      5             0.34986
     x      16      7            -0.11564
     x      16      8            -0.36542
     x      16      9             0.47083
     x      16     10             0.31923
     x      16     12            -0.00102
     x      16     13             0.24100
     x      16     15             0.12997
     x      17      3             0.11055
     x      17      6             0.14772
     x      17     11             0.18706
     x      17     14             0.01950
     x      17     16             0.34611
     x      18      1            -0.00614
     x      18      2            -0.07962
     x      18      4            -0.89359
     x      18      5             0.12812
     x      18      7            -0.04912
     x      18      8             0.24621
     x      18      9             0.23689
     x      18     10             0.09505
     x      18     12             0.06306
     x      18     13            -0.15865
     x      18     15            -0.14438
     x      18     17             0.01606
     y       3      2            -0.01613
     y       4      3             0.03027
     y       5      3            -0.02024
     y       6      1            -0.00724
     y       6      2            -0.43291
     y       6      4             0.18653
     y       6      5             0.00238
     y       7      3             0.24860
     y       7      6            -0.01393
     y       8      3             0.60063
     y       8      6             0.37466
     y       9      3             0.40048
     y       9      6             0.44209
     y      10      3             0.04448
     y      10      6            -0.24224
     y      11      1             0.02339
     y      11      2            -0.08715
     y      11      4             0.60504
     y      11      5             0.34736
     y      11      7            -0.33228
     y      11      8             0.46611
     y      11      9            -0.19143
     y      11     10             0.21108
     y      12      3            -0.34805
     y      12      6             0.35561
     y      12     11            -0.12425
     y      13      3            -0.03151
     y      13      6            -0.09355
     y      13     11            -0.21694
     y      14      1            -0.75194
     y      14      2            -0.07116
     y      14      4             0.29040
     y      14      5            -0.24314
     y      14      7            -0.26686
     y      14      8            -0.08020
     y      14      9             0.20613
     y      14     10            -0.23793
     y      14     12            -0.14194
     y      14     13            -0.03298
     y      15      3            -0.02840
     y      15      6             0.04013
     y      15     11            -0.08618
     y      15     14             0.29011
     y      16      1            -0.62157
     y      16      2             0.08024
     y      16      4            -0.36089
     y      16      5             0.32543
     y      16      7             0.35563
     y      16      8             0.19813
     y      16      9            -0.37617
     y      16     10             0.12352
     y      16     12             0.09766
     y      16     13             0.13467
     y      16     15             0.14119
     y      17      3            -0.17110
     y      17      6             0.17596
     y      17     11            -0.04869
     y      17     14            -0.04965
     y      17     16             0.02726
     y      18      1            -0.05210
     y      18      2             0.23809
     y      18      4            -0.00364
     y      18      5             0.12071
     y      18      7            -0.25145
     y      18      8            -0.11485
     y      18      9             0.00735
     y      18     10            -0.12171
     y      18     12             0.42519
     y      18     13             0.02123
     y      18     15             0.10766
     y      18     17             0.40420
     z       4      1            -0.00190
     z       4      2            -0.04042
     z       5      1            -0.15036
     z       5      2            -0.08354
     z       5      4            -0.04984
     z       6      3             0.37808
     z       7      1            -0.04254
     z       7      2             0.42301
     z       7      4             0.05631
     z       7      5             0.13500
     z       8      1            -0.22605
     z       8      2            -0.55128
     z       8      4             0.16808
     z       8      5             0.40844
     z       8      7             0.50330
     z       9      1             0.46126
     z       9      2            -0.42819
     z       9      4            -0.00237
     z       9      5            -0.52628
     z       9      7             0.24161
     z       9      8            -0.10305
     z      10      1             0.71937
     z      10      2             0.19250
     z      10      4             0.20872
     z      10      5             0.32567
     z      10      7             0.11740
     z      10      8             0.15753
     z      10      9             0.00153
     z      11      3             0.26956
     z      11      6            -0.35917
     z      12      1             0.24044
     z      12      2            -0.35935
     z      12      4            -0.56703
     z      12      5             0.15883
     z      12      7            -0.41198
     z      12      8            -0.20172
     z      12      9            -0.19654
     z      12     10            -0.09589
     z      13      1             0.19240
     z      13      2             0.06345
     z      13      4             0.00425
     z      13      5             0.08981
     z      13      7            -0.09043
     z      13      8            -0.17487
     z      13      9             0.20660
     z      13     10            -0.07184
     z      13     12             0.08997
     z      14      3             0.15353
     z      14      6            -0.16758
     z      14     11             0.02637
     z      15      1             0.25133
     z      15      2            -0.04471
     z      15      4            -0.05146
     z      15      5             0.47962
     z      15      7             0.01612
     z      15      8            -0.18562
     z      15      9             0.22950
     z      15     10             0.14111
     z      15     12            -0.36617
     z      15     13             0.06646
     z      16      3            -0.21075
     z      16      6             0.17987
     z      16     11            -0.07196
     z      16     14            -0.02037
     z      17      1            -0.16442
     z      17      2            -0.19309
     z      17      4            -0.25842
     z      17      5             0.28438
     z      17      7            -0.12042
     z      17      8             0.14714
     z      17      9            -0.26505
     z      17     10             0.41614
     z      17     12             0.23046
     z      17     13             0.06044
     z      17     15            -0.66946
     z      18      3             0.19657
     z      18      6             0.33323
     z      18     11             0.42433
     z      18     14             0.22245
     z      18     16            -0.27927

 Num. of Coriolis couplings larger than  0.100D-02: 221 over 513

 ........................................................
 :      QUADRATIC FORCE CONSTANTS IN NORMAL MODES       :
 :                                                      :
 : FI =  Frequency [cm-1]                               :
 : k  =  Force Const.[ attoJ * amu(-1) * ang(-2) ]      :
 : K  =  Force Const.[ Hartrees * amu(-1) * bohr(-2) ]  :
 :......................................................:

      I      J                  FI(I,J)       k(I,J)       K(I,J)

      1      1                 3764.14564      8.34801      0.53620
      2      2                 3189.79474      5.99481      0.38505
      3      3                 3145.64025      5.83000      0.37446
      4      4                 3080.43729      5.59081      0.35910
      5      5                 1843.66398      2.00269      0.12863
      6      6                 1466.39691      1.26693      0.08138
      7      7                 1460.54591      1.25684      0.08073
      8      8                 1412.28962      1.17516      0.07548
      9      9                 1339.69449      1.05745      0.06792
     10     10                 1215.97958      0.87117      0.05596
     11     11                 1064.08322      0.66712      0.04285
     12     12                 1000.03991      0.58923      0.03785
     13     13                  875.38514      0.45149      0.02900
     14     14                  662.94944      0.25895      0.01663
     15     15                  588.34012      0.20394      0.01310
     16     16                  543.77158      0.17421      0.01119
     17     17                  422.18606      0.10502      0.00675
     18     18                   72.88196      0.00313      0.00020

 Num. of 2nd derivatives larger than  0.371D-04: 18 over 171

 ........................................................
 :        CUBIC FORCE CONSTANTS IN NORMAL MODES         :
 :                                                      :
 : FI =  Reduced values [cm-1]  (default input)         :
 : k  =  Cubic Force Const.[AttoJ*amu(-3/2)*Ang(-3)]    :
 : K  =  Cubic Force Const.[Hartree*amu(-3/2)*Bohr(-3)] :
 :......................................................:

      I      J      K          FI(I,J,K)     k(I,J,K)     K(I,J,K)

      1      1      1         -2523.35053    -59.13086     -2.00982
      2      1      1             4.52180      0.09754      0.00332
      2      2      1            -1.30932     -0.02600     -0.00088
      2      2      2          1328.96491     24.29375      0.82573
      3      2      2            -0.10346     -0.00188     -0.00006
      3      3      1            -4.19599     -0.08217     -0.00279
      3      3      2          -611.20072    -11.01821     -0.37450
      4      1      1            -8.44752     -0.17908     -0.00609
      4      2      1             1.39137      0.02715      0.00092
      4      2      2           875.82583     15.73344      0.53477
      4      3      3          1233.20329     21.84675      0.74256
      4      4      1            -3.23034     -0.06195     -0.00211
      4      4      2          -174.65961     -3.08335     -0.10480
      4      4      4          1083.43142     18.79563      0.63885
      5      1      1           -24.82078     -0.40706     -0.01384
      5      2      1            -0.23916     -0.00361     -0.00012
      5      2      2           -16.39909     -0.22791     -0.00775
      5      3      3             7.28566      0.09985      0.00339
      5      4      2           -16.94017     -0.23136     -0.00786
      5      4      4             0.46379      0.00622      0.00021
      5      5      1            11.42999      0.13119      0.00446
      5      5      2             0.54761      0.00579      0.00020
      5      5      4             0.42708      0.00443      0.00015
      5      5      5           517.30854      4.15537      0.14124
      6      3      1            -0.44322     -0.00593     -0.00020
      6      3      2           -79.42180     -0.97755     -0.03323
      6      4      3             5.62734      0.06807      0.00231
      6      5      3            -3.69148     -0.03454     -0.00117
      6      6      1             0.61023      0.00557      0.00019
      6      6      2          -109.20734     -0.91774     -0.03119
      6      6      4          -124.28296     -1.02638     -0.03489
      6      6      5            -2.45218     -0.01567     -0.00053
      7      1      1           -12.14053     -0.17721     -0.00602
      7      2      2           -71.32865     -0.88231     -0.02999
      7      3      3            83.14340      1.01422      0.03447
      7      4      1             0.27678      0.00365      0.00012
      7      4      2            22.32544      0.27138      0.00922
      7      4      4            -0.50775     -0.00607     -0.00021
      7      5      1             2.87057      0.02932      0.00100
      7      5      2            11.68066      0.10985      0.00373
      7      5      4             2.37678      0.02196      0.00075
      7      5      5            39.08017      0.27940      0.00950
      7      6      3            69.75698      0.58098      0.01975
      7      6      6            70.14711      0.39889      0.01356
      7      7      1             1.57825      0.01435      0.00049
      7      7      2            36.39388      0.30462      0.01035
      7      7      4          -139.44645     -1.14701     -0.03899
      7      7      5             9.36420      0.05959      0.00203
      7      7      7           -48.42918     -0.27429     -0.00932
      8      1      1           -55.98223     -0.80355     -0.02731
      8      2      2            40.65092      0.49446      0.01681
      8      3      3            24.68703      0.29613      0.01007
      8      4      1            -0.64159     -0.00833     -0.00028
      8      4      2            -9.36227     -0.11191     -0.00380
      8      4      4           -36.55169     -0.42936     -0.01459
      8      5      1            15.98939      0.16062      0.00546
      8      5      2           -15.61104     -0.14436     -0.00491
      8      5      4           -15.15696     -0.13774     -0.00468
      8      5      5           -89.65693     -0.63032     -0.02142
      8      6      3           -81.16498     -0.66473     -0.02259
      8      6      6           -13.78400     -0.07708     -0.00262
      8      7      1             3.03871      0.02717      0.00092
      8      7      2            55.46379      0.45651      0.01552
      8      7      4             6.74486      0.05456      0.00185
      8      7      5           -11.85309     -0.07417     -0.00252
      8      7      7            -7.92461     -0.04414     -0.00150
      8      8      1            18.27018      0.16063      0.00546
      8      8      2            -5.48749     -0.04441     -0.00151
      8      8      4          -190.30995     -1.51366     -0.05145
      8      8      5           -48.76984     -0.30009     -0.01020
      8      8      7             6.44719      0.03531      0.00120
      8      8      8           -68.65947     -0.36976     -0.01257
      9      1      1            89.26079      1.24786      0.04241
      9      2      1            -0.52705     -0.00678     -0.00023
      9      2      2            11.78999      0.13967      0.00475
      9      3      3            58.54832      0.68401      0.02325
      9      4      1             0.46361      0.00586      0.00020
      9      4      2           -14.20791     -0.16541     -0.00562
      9      4      4            -7.04766     -0.08063     -0.00274
      9      5      1           -38.26405     -0.37437     -0.01272
      9      5      2            -9.06603     -0.08165     -0.00278
      9      5      4            -8.27909     -0.07328     -0.00249
      9      5      5            79.24972      0.54265      0.01844
      9      6      3           -12.19370     -0.09726     -0.00331
      9      7      1            -7.22564     -0.06292     -0.00214
      9      7      2            69.16129      0.55442      0.01884
      9      7      4           -28.99140     -0.22839     -0.00776
      9      7      5            13.95856      0.08507      0.00289
      9      7      7           -18.91105     -0.10258     -0.00349
      9      8      1           -48.47672     -0.41511     -0.01411
      9      8      2           -32.09589     -0.25301     -0.00860
      9      8      4          -111.97103     -0.86739     -0.02948
      9      8      5            16.99294      0.10184      0.00346
      9      8      8           -74.05891     -0.38846     -0.01320
      9      9      1           122.15402      1.01879      0.03463
      9      9      2           -28.71004     -0.22042     -0.00749
      9      9      4           -82.43235     -0.62194     -0.02114
      9      9      5           -13.79528     -0.08052     -0.00274
      9      9      7             7.66260      0.03981      0.00135
      9      9      8            44.72404      0.22848      0.00777
      9      9      9          -108.72919     -0.54099     -0.01839
     10      1      1            79.07354      1.05317      0.03580
     10      2      1             0.14825      0.00182      0.00006
     10      2      2            15.17743      0.17130      0.00582
     10      3      3           -28.80461     -0.32061     -0.01090
     10      4      1            -0.31303     -0.00377     -0.00013
     10      4      2             9.10540      0.10099      0.00343
     10      4      4            -5.65582     -0.06165     -0.00210
     10      5      1           -80.63355     -0.75161     -0.02555
     10      5      2             7.71449      0.06620      0.00225
     10      5      4             0.51181      0.00432      0.00015
     10      5      5            86.90839      0.56695      0.01927
     10      6      3           -53.06932     -0.40330     -0.01371
     10      6      6            -8.24014     -0.04275     -0.00145
     10      7      1           -20.18430     -0.16746     -0.00569
     10      7      2           -60.95150     -0.46550     -0.01582
     10      7      4            27.24756      0.20450      0.00695
     10      7      5            -4.79288     -0.02783     -0.00095
     10      7      7             9.83687      0.05084      0.00173
     10      8      1          -116.84872     -0.95328     -0.03240
     10      8      2            67.13985      0.50422      0.01714
     10      8      4            -5.50834     -0.04065     -0.00138
     10      8      5           -72.51254     -0.41401     -0.01407
     10      8      7            -8.94806     -0.04547     -0.00155
     10      8      8             9.37149      0.04683      0.00159
     10      9      1           262.40064      2.08498      0.07087
     10      9      2            40.45295      0.29589      0.01006
     10      9      4            15.74112      0.11315      0.00385
     10      9      5            76.39155      0.42480      0.01444
     10      9      7            11.10663      0.05497      0.00187
     10      9      8            -8.66657     -0.04218     -0.00143
     10      9      9           -10.52715     -0.04990     -0.00170
     10     10      1           494.11464      3.74045      0.12714
     10     10      2           -13.77948     -0.09602     -0.00326
     10     10      4           -29.98905     -0.20537     -0.00698
     10     10      5            -4.47629     -0.02371     -0.00081
     10     10      7            -1.06333     -0.00501     -0.00017
     10     10      8            64.60281      0.29955      0.01018
     10     10      9           -89.14059     -0.40257     -0.01368
     10     10     10             0.79121      0.00340      0.00012
     11      3      2            40.45722      0.42419      0.01442
     11      4      3           -46.38350     -0.47791     -0.01624
     11      5      3           -10.97327     -0.08747     -0.00297
     11      6      1             0.48136      0.00374      0.00013
     11      6      2           161.60354      1.15687      0.03932
     11      6      4             5.85883      0.04122      0.00140
     11      6      5           -16.07517     -0.08749     -0.00297
     11      7      3          -127.79246     -0.90666     -0.03082
     11      7      6           -14.83611     -0.07187     -0.00244
     11      8      3          -178.37195     -1.24442     -0.04230
     11      8      6            -1.13850     -0.00542     -0.00018
     11      9      3          -133.45242     -0.90679     -0.03082
     11      9      6            -9.22287     -0.04279     -0.00145
     11     10      3             4.70586      0.03046      0.00104
     11     10      6            18.77162      0.08297      0.00282
     11     11      1             1.42391      0.00943      0.00032
     11     11      2           -14.74318     -0.08991     -0.00306
     11     11      4          -224.54299     -1.34561     -0.04574
     11     11      5           -24.30206     -0.11267     -0.00383
     11     11      7            52.40015      0.21622      0.00735
     11     11      8            41.84823      0.16981      0.00577
     11     11      9            41.26061      0.16306      0.00554
     11     11     10           -16.69222     -0.06285     -0.00214
     12      1      1             7.05255      0.08518      0.00290
     12      2      2           -40.08043     -0.41024     -0.01394
     12      3      3            30.66150      0.30949      0.01052
     12      4      1            -0.66533     -0.00727     -0.00025
     12      4      2           -15.18235     -0.15271     -0.00519
     12      4      4             7.31863      0.07234      0.00246
     12      5      1           -35.51671     -0.30023     -0.01020
     12      5      2           -26.34357     -0.20499     -0.00697
     12      5      4            -2.04717     -0.01565     -0.00053
     12      5      5           -53.45664     -0.31625     -0.01075
     12      6      3           149.66648      1.03146      0.03506
     12      6      6            17.51599      0.08242      0.00280
     12      7      1            -8.02586     -0.06038     -0.00205
     12      7      2           158.70131      1.09917      0.03736
     12      7      4           -38.73149     -0.26362     -0.00896
     12      7      5            -7.43280     -0.03914     -0.00133
     12      7      7            -2.02597     -0.00949     -0.00032
     12      8      1           -52.11537     -0.38557     -0.01311
     12      8      2          -204.62778     -1.39365     -0.04737
     12      8      4            58.29524      0.39016      0.01326
     12      8      5           -21.07372     -0.10912     -0.00371
     12      8      7            25.11127      0.11573      0.00393
     12      8      8            -9.91458     -0.04493     -0.00153
     12      9      1           109.01589      0.78555      0.02670
     12      9      2          -131.73866     -0.87386     -0.02970
     12      9      4            -9.91591     -0.06464     -0.00220
     12      9      5            40.96859      0.20660      0.00702
     12      9      7           -17.51701     -0.07863     -0.00267
     12      9      8           -15.02099     -0.06630     -0.00225
     12      9      9            42.31401      0.18190      0.00618
     12     10      1           194.54040      1.33552      0.04539
     12     10      2            48.92029      0.30916      0.01051
     12     10      4            88.44498      0.54927      0.01867
     12     10      5           -42.47142     -0.20405     -0.00694
     12     10      7            34.02637      0.14551      0.00495
     12     10      8            17.86884      0.07514      0.00255
     12     10      9           -63.77985     -0.26121     -0.00888
     12     10     10            44.03886      0.17183      0.00584
     12     11      3            70.86719      0.41604      0.01414
     12     11      6           -62.84801     -0.25191     -0.00856
     12     11     11            -4.36896     -0.01492     -0.00051
     12     12      1            73.63732      0.45844      0.01558
     12     12      2          -130.38324     -0.74724     -0.02540
     12     12      4          -268.55463     -1.51249     -0.05141
     12     12      5           -19.69554     -0.08581     -0.00292
     12     12      7           -42.72656     -0.16570     -0.00563
     12     12      8            51.30424      0.19565      0.00665
     12     12      9           -11.23996     -0.04175     -0.00142
     12     12     10            32.57191      0.11526      0.00392
     12     12     12            28.62881      0.09187      0.00312
     13      1      1            14.99173      0.16942      0.00576
     13      2      1            -0.18135     -0.00189     -0.00006
     13      2      2           -17.08288     -0.16359     -0.00556
     13      3      3            -3.27749     -0.03095     -0.00105
     13      4      1             0.33827      0.00346      0.00012
     13      4      2            -3.80148     -0.03577     -0.00122
     13      4      4            -5.03701     -0.04658     -0.00158
     13      5      1           -18.96960     -0.15003     -0.00510
     13      5      2            -4.86405     -0.03541     -0.00120
     13      5      4            -1.30641     -0.00935     -0.00032
     13      5      5          -102.65606     -0.56820     -0.01931
     13      6      3            -5.52558     -0.03563     -0.00121
     13      6      6            -0.80999     -0.00357     -0.00012
     13      7      1            -4.32902     -0.03047     -0.00104
     13      7      2             0.67423      0.00437      0.00015
     13      7      4            -6.90689     -0.04398     -0.00149
     13      7      5            -4.15588     -0.02047     -0.00070
     13      7      7            -1.79365     -0.00786     -0.00027
     13      8      1           -28.69897     -0.19865     -0.00675
     13      8      2             7.67731      0.04892      0.00166
     13      8      4            -8.37299     -0.05243     -0.00178
     13      8      5           -25.16285     -0.12190     -0.00414
     13      8      7           -15.62248     -0.06736     -0.00229
     13      8      8          -101.97570     -0.43237     -0.01470
     13      9      1            68.37650      0.46098      0.01567
     13      9      2             6.30888      0.03915      0.00133
     13      9      4             1.59903      0.00975      0.00033
     13      9      5             6.79926      0.03208      0.00109
     13      9      7            19.17173      0.08051      0.00274
     13      9      8            63.56841      0.26251      0.00892
     13      9      9           -77.64597     -0.31229     -0.01061
     13     10      1           138.03279      0.88657      0.03013
     13     10      2            -3.81740     -0.02257     -0.00077
     13     10      4            -4.65607     -0.02705     -0.00092
     13     10      5            -0.36703     -0.00165     -0.00006
     13     10      7           -19.50577     -0.07804     -0.00265
     13     10      8           -54.08810     -0.21280     -0.00723
     13     10      9            36.85306      0.14121      0.00480
     13     10     10          -111.90092     -0.40850     -0.01388
     13     11      3           -11.08509     -0.06089     -0.00207
     13     11      6           -12.51567     -0.04694     -0.00160
     13     11     11           -14.99439     -0.04790     -0.00163
     13     12      1            56.79786      0.33083      0.01124
     13     12      2            14.57231      0.07814      0.00266
     13     12      4             4.30929      0.02271      0.00077
     13     12      5            -0.83783     -0.00342     -0.00012
     13     12      7             5.32803      0.01933      0.00066
     13     12      8           -42.38501     -0.15122     -0.00514
     13     12      9            36.30285      0.12615      0.00429
     13     12     10           -47.60557     -0.15760     -0.00536
     13     12     12           -64.14361     -0.19258     -0.00655
     13     13      1            43.10246      0.23489      0.00798
     13     13      2            -5.82163     -0.02921     -0.00099
     13     13      4           -10.50559     -0.05179     -0.00176
     13     13      5           -53.73403     -0.20494     -0.00697
     13     13      7             0.36474      0.00124      0.00004
     13     13      8           -52.28634     -0.17454     -0.00593
     13     13      9            -8.13450     -0.02645     -0.00090
     13     13     10             5.76124      0.01784      0.00061
     13     13     12             3.88355      0.01091      0.00037
     13     13     13          -164.33826     -0.43189     -0.01468
     14      3      1             0.24383      0.00219      0.00007
     14      3      2            11.03915      0.09136      0.00311
     14      4      3           -16.55484     -0.13464     -0.00458
     14      5      3            -0.90119     -0.00567     -0.00019
     14      6      1             8.62671      0.05295      0.00180
     14      6      2            90.06356      0.50890      0.01730
     14      6      4           -21.22212     -0.11784     -0.00401
     14      6      5            -2.95860     -0.01271     -0.00043
     14      7      3           -69.29562     -0.38806     -0.01319
     14      7      6             0.29297      0.00112      0.00004
     14      8      3          -126.81962     -0.69836     -0.02374
     14      8      6            -5.77800     -0.02172     -0.00074
     14      9      3           -90.82168     -0.48711     -0.01656
     14      9      6            -4.43628     -0.01625     -0.00055
     14     10      3            -5.99572     -0.03064     -0.00104
     14     10      6            15.20189      0.05304      0.00180
     14     11      1           -29.92075     -0.15645     -0.00532
     14     11      2            17.39509      0.08373      0.00285
     14     11      4          -156.24555     -0.73906     -0.02512
     14     11      5             7.19742      0.02634      0.00090
     14     11      7            25.40017      0.08273      0.00281
     14     11      8            -6.38030     -0.02043     -0.00069
     14     11      9            32.76157      0.10220      0.00347
     14     11     10            30.44552      0.09048      0.00308
     14     12      3            75.89387      0.35168      0.01195
     14     12      6           -27.15659     -0.08592     -0.00292
     14     12     11             7.46477      0.02012      0.00068
     14     13      3             1.52831      0.00663      0.00023
     14     13      6            -1.63185     -0.00483     -0.00016
     14     13     11             3.95238      0.00997      0.00034
     14     14      1          1188.28873      4.90425      0.16669
     14     14      2            22.53687      0.08562      0.00291
     14     14      4          -100.77489     -0.37625     -0.01279
     14     14      5           -16.49295     -0.04764     -0.00162
     14     14      7            30.11396      0.07742      0.00263
     14     14      8            66.13372      0.16719      0.00568
     14     14      9          -112.83494     -0.27782     -0.00944
     14     14     10           -97.23032     -0.22808     -0.00775
     14     14     12            16.67242      0.03547      0.00121
     14     14     13           -42.32878     -0.08425     -0.00286
     15      1      1            21.17141      0.19614      0.00667
     15      2      2             2.86180      0.02247      0.00076
     15      3      3             0.70079      0.00543      0.00018
     15      4      2             0.58027      0.00448      0.00015
     15      4      4             1.69174      0.01283      0.00044
     15      5      1           -41.80310     -0.27104     -0.00921
     15      5      2            -0.27916     -0.00167     -0.00006
     15      5      4            -0.28732     -0.00169     -0.00006
     15      5      5             7.88375      0.03577      0.00122
     15      6      3            18.09628      0.09566      0.00325
     15      6      6             1.92897      0.00696      0.00024
     15      7      1           -11.73699     -0.06773     -0.00230
     15      7      2            17.50009      0.09297      0.00316
     15      7      4             4.20279      0.02194      0.00075
     15      7      5            -4.50227     -0.01818     -0.00062
     15      7      7            -0.59148     -0.00213     -0.00007
     15      8      1           -62.48713     -0.35460     -0.01205
     15      8      2           -29.23096     -0.15270     -0.00519
     15      8      4            12.76912      0.06555      0.00223
     15      8      5            -7.96814     -0.03165     -0.00108
     15      8      7            -1.13759     -0.00402     -0.00014
     15      8      8            16.01889      0.05568      0.00189
     15      9      1           139.13489      0.76899      0.02614
     15      9      2           -21.07689     -0.10724     -0.00364
     15      9      4            -0.74045     -0.00370     -0.00013
     15      9      5            25.52906      0.09875      0.00336
     15      9      7             1.47793      0.00509      0.00017
     15      9      8             7.41134      0.02509      0.00085
     15      9      9           -14.72166     -0.04854     -0.00165
     15     10      1           251.12955      1.32235      0.04495
     15     10      2             9.97257      0.04834      0.00164
     15     10      4            12.47345      0.05942      0.00202
     15     10      5             4.68769      0.01727      0.00059
     15     10      7             2.57686      0.00845      0.00029
     15     10      8             7.51718      0.02425      0.00082
     15     10      9           -12.54181     -0.03940     -0.00134
     15     10     10           -45.97257     -0.13759     -0.00468
     15     11      3            21.23918      0.09564      0.00325
     15     11      6            -3.10097     -0.00953     -0.00032
     15     11     11             4.69890      0.01231      0.00042
     15     12      1            97.78101      0.46693      0.01587
     15     12      2           -25.08546     -0.11027     -0.00375
     15     12      4           -34.07235     -0.14719     -0.00500
     15     12      5            -1.82189     -0.00609     -0.00021
     15     12      7           -12.68241     -0.03772     -0.00128
     15     12      8             7.29798      0.02135      0.00073
     15     12      9            -1.43280     -0.00408     -0.00014
     15     12     10           -23.05462     -0.06257     -0.00213
     15     12     12            12.23736      0.03012      0.00102
     15     13      1            76.88004      0.34348      0.01167
     15     13      2             5.58504      0.02297      0.00078
     15     13      4             4.95707      0.02003      0.00068
     15     13      5            13.08289      0.04091      0.00139
     15     13      7             6.25488      0.01741      0.00059
     15     13      8            37.06086      0.10142      0.00345
     15     13      9           -20.53036     -0.05472     -0.00186
     15     13     10            25.61776      0.06505      0.00221
     15     13     12            17.60811      0.04055      0.00138
     15     13     13            28.81095      0.06207      0.00211
     15     14      3            12.75118      0.04532      0.00154
     15     14      6            -1.67479     -0.00406     -0.00014
     15     14     11             6.38413      0.01320      0.00045
     15     14     14           -46.05889     -0.07515     -0.00255
     15     15      1           136.09809      0.49848      0.01694
     15     15      2            -6.80746     -0.02295     -0.00078
     15     15      4            -6.50378     -0.02155     -0.00073
     15     15      5           -33.77837     -0.08659     -0.00294
     15     15      7            -4.59445     -0.01048     -0.00036
     15     15      8            -8.65049     -0.01941     -0.00066
     15     15      9             1.64307      0.00359      0.00012
     15     15     10            -4.33703     -0.00903     -0.00031
     15     15     12             0.90467      0.00171      0.00006
     15     15     13           -41.01815     -0.07245     -0.00246
     15     15     15           -27.14483     -0.03931     -0.00134
     16      3      1             0.32771      0.00267      0.00009
     16      3      2            -8.90752     -0.06676     -0.00227
     16      4      3            14.50338      0.10683      0.00363
     16      5      3             0.40551      0.00231      0.00008
     16      6      1             5.21651      0.02900      0.00099
     16      6      2          -146.40093     -0.74920     -0.02546
     16      6      4            44.37485      0.22316      0.00759
     16      6      5            -2.21298     -0.00861     -0.00029
     16      7      3            59.81213      0.30335      0.01031
     16      7      6            -1.05246     -0.00364     -0.00012
     16      8      3           180.71205      0.90126      0.03063
     16      8      6            -0.65854     -0.00224     -0.00008
     16      9      3           119.81755      0.58200      0.01978
     16      9      6            10.91093      0.03619      0.00123
     16     10      3            18.52788      0.08574      0.00291
     16     10      6           -10.27574     -0.03247     -0.00110
     16     11      1           -32.43779     -0.15361     -0.00522
     16     11      2           -14.63118     -0.06378     -0.00217
     16     11      4           214.75307      0.91998      0.03127
     16     11      5           -31.67924     -0.10499     -0.00357
     16     11      7           -41.20621     -0.12155     -0.00413
     16     11      8           -15.86633     -0.04602     -0.00156
     16     11      9             7.15949      0.02023      0.00069
     16     11     10            14.35197      0.03863      0.00131
     16     12      3          -138.82584     -0.58261     -0.01980
     16     12      6            41.39823      0.11862      0.00403
     16     12     11             4.97525      0.01214      0.00041
     16     13      3            -6.67463     -0.02621     -0.00089
     16     13      6             2.62259      0.00703      0.00024
     16     13     11            14.40169      0.03289      0.00112
     16     14      1          1080.67459      4.03937      0.13730
     16     14      2           -29.33774     -0.10095     -0.00343
     16     14      4           153.25887      0.51822      0.01761
     16     14      5            44.65588      0.11682      0.00397
     16     14      7           -14.55694     -0.03389     -0.00115
     16     14      8            32.48142      0.07437      0.00253
     16     14      9           -44.29571     -0.09878     -0.00336
     16     14     10           -15.52040     -0.03297     -0.00112
     16     14     12            14.54963      0.02803      0.00095
     16     14     13           -42.76410     -0.07708     -0.00262
     16     15      3           -18.35124     -0.05907     -0.00201
     16     15      6             5.06533      0.01113      0.00038
     16     15     11             6.40434      0.01199      0.00041
     16     15     14           -15.95083     -0.02357     -0.00080
     16     16      1           988.62294      3.34670      0.11375
     16     16      2            34.97879      0.10900      0.00370
     16     16      4          -208.67771     -0.63905     -0.02172
     16     16      5           -81.36361     -0.19276     -0.00655
     16     16      7            35.45295      0.07476      0.00254
     16     16      8            -8.43481     -0.01749     -0.00059
     16     16      9            12.70211      0.02565      0.00087
     16     16     10             6.20660      0.01194      0.00041
     16     16     12             4.28376      0.00747      0.00025
     16     16     13            10.58042      0.01727      0.00059
     16     16     15           -10.35348     -0.01386     -0.00047
     17      1      1           -12.32521     -0.09673     -0.00329
     17      2      1            -0.44012     -0.00318     -0.00011
     17      2      2            -7.93855     -0.05280     -0.00179
     17      3      3             3.84141      0.02519      0.00086
     17      4      2            -3.74737     -0.02449     -0.00083
     17      5      1            33.17427      0.18221      0.00619
     17      5      2           -20.51259     -0.10371     -0.00353
     17      5      4            -7.68101     -0.03816     -0.00130
     17      5      5             0.67128      0.00258      0.00009
     17      6      3           106.80042      0.47824      0.01625
     17      7      1             9.93499      0.04857      0.00165
     17      7      2           120.47090      0.54214      0.01843
     17      7      4             7.21955      0.03193      0.00109
     17      7      5            -1.17815     -0.00403     -0.00014
     17      7      7             1.90546      0.00580      0.00020
     17      8      1            51.60389      0.24807      0.00843
     17      8      2          -166.14856     -0.73524     -0.02499
     17      8      4            47.89736      0.20829      0.00708
     17      8      5            -6.37970     -0.02146     -0.00073
     17      8      7            10.58605      0.03170      0.00108
     17      8      8             2.38027      0.00701      0.00024
     17      9      1          -116.76386     -0.54668     -0.01858
     17      9      2          -127.36391     -0.54893     -0.01866
     17      9      4            -2.04736     -0.00867     -0.00029
     17      9      5             9.66304      0.03166      0.00108
     17      9      7            -1.93222     -0.00564     -0.00019
     17      9      8           -10.28143     -0.02949     -0.00100
     17      9      9            17.88870      0.04997      0.00170
     17     10      1          -205.05818     -0.91467     -0.03109
     17     10      2            59.57969      0.24464      0.00832
     17     10      4            66.91302      0.27000      0.00918
     17     10      5           -12.61603     -0.03938     -0.00134
     17     10      7            10.21810      0.02839      0.00096
     17     10      8            -3.33093     -0.00910     -0.00031
     17     10      9            -1.33896     -0.00356     -0.00012
     17     10     10             9.08720      0.02304      0.00078
     17     11      3            93.64270      0.35719      0.01214
     17     11      6           -32.59879     -0.08490     -0.00289
     17     11     11            -1.22568     -0.00272     -0.00009
     17     12      1           -73.60433     -0.29774     -0.01012
     17     12      2          -137.45588     -0.51185     -0.01740
     17     12      4          -214.03099     -0.78321     -0.02662
     17     12      5            -2.26166     -0.00640     -0.00022
     17     12      7           -36.21158     -0.09124     -0.00310
     17     12      8             7.15723      0.01773      0.00060
     17     12      9            -1.67303     -0.00404     -0.00014
     17     12     10             2.73544      0.00629      0.00021
     17     12     12             5.22914      0.01090      0.00037
     17     13      1           -64.10429     -0.24261     -0.00825
     17     13      2            22.38070      0.07797      0.00265
     17     13      4             1.83776      0.00629      0.00021
     17     13      5           -17.61202     -0.04665     -0.00159
     17     13      7             1.96243      0.00463      0.00016
     17     13      8             6.21792      0.01441      0.00049
     17     13      9           -11.86172     -0.02678     -0.00091
     17     13     12            11.94595      0.02330      0.00079
     17     13     13           -14.64300     -0.02673     -0.00091
     17     14      3            74.67664      0.22484      0.00764
     17     14      6           -24.02849     -0.04939     -0.00168
     17     14     14             1.81383      0.00251      0.00009
     17     15      1          -109.55714     -0.33992     -0.01155
     17     15      2           -28.49009     -0.08137     -0.00277
     17     15      4           -27.04393     -0.07591     -0.00258
     17     15      5           -23.48841     -0.05100     -0.00173
     17     15      7            -8.28586     -0.01601     -0.00054
     17     15      8             5.21958      0.00992      0.00034
     17     15      9            -3.77340     -0.00698     -0.00024
     17     15     10            -0.95024     -0.00168     -0.00006
     17     15     12            -0.72190     -0.00115     -0.00004
     17     15     13             4.60877      0.00690      0.00023
     17     15     15            17.23769      0.02114      0.00072
     17     16      3          -121.38466     -0.33099     -0.01125
     17     16      6            32.98017      0.06140      0.00209
     17     16     11             1.10797      0.00176      0.00006
     17     16     14             5.32793      0.00667      0.00023
     17     16     16           -17.88655     -0.02028     -0.00069
     17     17      1            85.46690      0.22463      0.00764
     17     17      2          -126.99998     -0.30727     -0.01044
     17     17      4          -171.54319     -0.40787     -0.01386
     17     17      5            -3.59285     -0.00661     -0.00022
     17     17      7           -38.77032     -0.06347     -0.00216
     17     17      9           -10.74232     -0.01684     -0.00057
     17     17     10            -6.89875     -0.01031     -0.00035
     17     17     12             7.22842      0.00979      0.00033
     17     17     13            -4.73426     -0.00600     -0.00020
     17     17     15            26.20609      0.02723      0.00093
     17     17     17           -18.98933     -0.01671     -0.00057
     18      3      1             1.40456      0.00419      0.00014
     18      3      2           -22.65841     -0.06217     -0.00211
     18      4      3            30.96005      0.08349      0.00284
     18      5      3           -29.32821     -0.06118     -0.00208
     18      6      1             8.43312      0.01716      0.00058
     18      6      2          1029.28205      1.92836      0.06554
     18      6      4          -160.48754     -0.29547     -0.01004
     18      6      5           -17.91082     -0.02551     -0.00087
     18      7      3          1122.56856      2.08436      0.07085
     18      7      6            -4.22382     -0.00535     -0.00018
     18      8      3           -18.96246     -0.03462     -0.00118
     18      8      6            32.69965      0.04076      0.00139
     18      9      3           300.56438      0.53449      0.01817
     18      9      6           -10.20841     -0.01239     -0.00042
     18     10      3          -326.27510     -0.55278     -0.01879
     18     10      6            13.17660      0.01524      0.00052
     18     11      1            -8.99665     -0.01560     -0.00053
     18     11      2          -733.50865     -1.17063     -0.03979
     18     11      4           166.85596      0.26169      0.00889
     18     11      5           -52.38264     -0.06356     -0.00216
     18     11      7            -6.18989     -0.00668     -0.00023
     18     11      8            22.43589      0.02383      0.00081
     18     11      9            -8.74265     -0.00904     -0.00031
     18     11     10            13.50578      0.01331      0.00045
     18     12      3           694.88560      1.06764      0.03629
     18     12      6            54.09452      0.05675      0.00193
     18     12     11            17.73535      0.01585      0.00054
     18     13      3            23.58018      0.03390      0.00115
     18     13     11           -24.01797     -0.02008     -0.00068
     18     14      1           250.11185      0.34226      0.01163
     18     14      2          -352.66311     -0.44425     -0.01510
     18     14      4            83.01474      0.10277      0.00349
     18     14      5            25.36576      0.02429      0.00083
     18     14      7            71.56817      0.06100      0.00207
     18     14      8            32.82304      0.02751      0.00094
     18     14      9           -16.24869     -0.01327     -0.00045
     18     14     10             3.59453      0.00280      0.00010
     18     14     12           -52.15580     -0.03679     -0.00125
     18     14     13           -19.82215     -0.01308     -0.00044
     18     15      3            41.07906      0.04841      0.00165
     18     15      6            17.31721      0.01393      0.00047
     18     15     11            37.06126      0.02540      0.00086
     18     15     14            10.67232      0.00577      0.00020
     18     16      1           227.99006      0.28256      0.00960
     18     16      2           447.01754      0.50999      0.01733
     18     16      4            82.70584      0.09273      0.00315
     18     16      5           -11.77190     -0.01021     -0.00035
     18     16      7           -91.68480     -0.07078     -0.00241
     18     16      8           -44.27553     -0.03361     -0.00114
     18     16      9           -30.79469     -0.02277     -0.00077
     18     16     10           -64.83632     -0.04567     -0.00155
     18     16     12           125.89607      0.08042      0.00273
     18     16     13            24.98788      0.01493      0.00051
     18     16     15           -23.03114     -0.01128     -0.00038
     18     17      3           372.45334      0.37181      0.01264
     18     17      6           132.78550      0.09051      0.00308
     18     17     11           106.63884      0.06192      0.00210
     18     17     14            31.60571      0.01448      0.00049
     18     17     16             3.43257      0.00142      0.00005
     18     18      1            63.18491      0.02867      0.00097
     18     18      2          -416.94071     -0.17415     -0.00592
     18     18      4         -6605.70908     -2.71133     -0.09216
     18     18      5            30.70978      0.00975      0.00033
     18     18      7          -236.10794     -0.06673     -0.00227
     18     18      8           651.68541      0.18112      0.00616
     18     18      9           377.65469      0.10222      0.00347
     18     18     10           -62.74027     -0.01618     -0.00055
     18     18     12           -59.72567     -0.01397     -0.00047
     18     18     13           -11.84621     -0.00259     -0.00009
     18     18     15            -8.05850     -0.00145     -0.00005
     18     18     17           -85.84535     -0.01304     -0.00044

 Num. of 3rd derivatives larger than  0.371D-04: 601 over 1140

 ........................................................
 :                                                      :
 :       QUARTIC FORCE CONSTANTS IN NORMAL MODES        :
 :                                                      :
 : FI =  Reduced values [cm-1]  (default input)         :
 : k  =  Quartic Force Const.[AttoJ*amu(-2)*Ang(-4)]    :
 : K  =  Quartic Force Const.[Hartree*amu(-2)*Bohr(-4)] :
 :......................................................:

      I      J      K      L  FI(I,J,K,L)   k(I,J,K,L)   K(I,J,K,L)

      1      1      1      1   1526.84080    378.05092      6.79976
      2      1      1      1     -1.82819     -0.41670     -0.00749
      2      2      1      1      0.19407      0.04072      0.00073
      2      2      2      1     -0.66822     -0.12907     -0.00232
      2      2      2      2    907.37889    161.33844      2.90189
      3      2      2      2     -0.03505     -0.00619     -0.00011
      3      3      1      1      0.83235      0.17223      0.00310
      3      3      2      1      0.76483      0.14568      0.00262
      3      3      2      2     62.60019     10.97668      0.19743
      3      3      3      2      0.01568      0.00273      0.00005
      3      3      3      3    412.25665     71.28686      1.28219
      4      1      1      1      2.61492      0.58572      0.01053
      4      2      1      1     -0.29857     -0.06156     -0.00111
      4      2      2      1     -0.72300     -0.13723     -0.00247
      4      2      2      2    372.14691     65.02621      1.16959
      4      3      2      2     -0.01961     -0.00340     -0.00006
      4      3      3      1     -1.52248     -0.28499     -0.00513
      4      3      3      2   -148.37331    -25.56678     -0.45985
      4      4      1      1      0.70693      0.14324      0.00258
      4      4      2      1      0.20348      0.03795      0.00068
      4      4      2      2    204.27044     35.07554      0.63088
      4      4      3      3    262.93226     44.52347      0.80082
      4      4      4      1     -1.22146     -0.22390     -0.00403
      4      4      4      2    -22.32403     -3.76701     -0.06775
      4      4      4      3      0.03005      0.00504      0.00009
      4      4      4      4    184.21585     30.54748      0.54944
      5      1      1      1     19.01941      3.29580      0.05928
      5      2      1      1     -0.05454     -0.00870     -0.00016
      5      2      2      1     -0.03758     -0.00552     -0.00010
      5      2      2      2     -7.54144     -1.01944     -0.01834
      5      3      3      1     -0.14614     -0.02116     -0.00038
      5      3      3      2     -1.26741     -0.16896     -0.00304
      5      4      1      1     -0.06997     -0.01097     -0.00020
      5      4      2      2     -3.99539     -0.53075     -0.00955
      5      4      3      3      1.54533      0.20244      0.00364
      5      4      4      1     -0.13043     -0.01850     -0.00033
      5      4      4      2     -3.23145     -0.42185     -0.00759
      5      4      4      4      1.02747      0.13181      0.00237
      5      5      1      1    -13.90959     -1.68689     -0.03034
      5      5      2      1     -0.06766     -0.00755     -0.00014
      5      5      2      2     -1.72978     -0.17777     -0.00320
      5      5      3      3      1.91324      0.19390      0.00349
      5      5      4      1     -0.20117     -0.02207     -0.00040
      5      5      4      2     -1.64275     -0.16591     -0.00298
      5      5      4      4      1.45902      0.14480      0.00260
      5      5      5      1     -0.94327     -0.08006     -0.00144
      5      5      5      2      2.33304      0.18228      0.00328
      5      5      5      4     -0.74898     -0.05751     -0.00103
      5      5      5      5    163.73516      9.72589      0.17493
      6      3      1      1     -0.10278     -0.01452     -0.00026
      6      3      2      2     -4.08088     -0.48856     -0.00879
      6      3      3      3      8.61926      1.01761      0.01830
      6      4      4      3      0.09667      0.01118      0.00020
      6      5      5      3      0.63720      0.04409      0.00079
      6      6      1      1      0.33389      0.03221      0.00058
      6      6      2      1     -0.37319     -0.03314     -0.00060
      6      6      2      2   -228.56467    -18.68302     -0.33604
      6      6      3      3    -97.97654     -7.89780     -0.14205
      6      6      4      1      0.28851      0.02518      0.00045
      6      6      4      2    -38.47815     -3.09084     -0.05559
      6      6      4      4   -103.74370     -8.18935     -0.14730
      6      6      5      1     -0.21604     -0.01458     -0.00026
      6      6      5      2      3.49814      0.21739      0.00391
      6      6      5      4     -0.37941     -0.02317     -0.00042
      6      6      5      5     -0.63987     -0.03023     -0.00054
      6      6      6      3     -7.52193     -0.41399     -0.00745
      6      6      6      6     18.98127      0.71327      0.01283
      7      1      1      1      6.75181      1.04136      0.01873
      7      2      1      1      0.12582      0.01786      0.00032
      7      2      2      1     -0.18184     -0.02377     -0.00043
      7      2      2      2    -25.60277     -3.08044     -0.05541
      7      3      3      1     -0.03013     -0.00388     -0.00007
      7      3      3      2     -3.04150     -0.36088     -0.00649
      7      4      1      1      0.25237      0.03521      0.00063
      7      4      2      2    -15.32710     -1.81222     -0.03260
      7      4      3      3     30.22983      3.52478      0.06340
      7      4      4      2      8.44059      0.98073      0.01764
      7      4      4      4      3.40714      0.38904      0.00700
      7      5      1      1     -4.44367     -0.47966     -0.00863
      7      5      2      2     14.95993      1.36840      0.02461
      7      5      3      3      6.84406      0.61737      0.01110
      7      5      4      4      5.87148      0.51866      0.00933
      7      5      5      1     -0.15076     -0.01139     -0.00020
      7      5      5      2      0.22912      0.01593      0.00029
      7      5      5      4      0.52353      0.03578      0.00064
      7      5      5      5     10.83578      0.57288      0.01030
      7      6      6      1     -0.11964     -0.00719     -0.00013
      7      6      6      2      6.83301      0.37794      0.00680
      7      6      6      4     15.51420      0.84327      0.01517
      7      6      6      5      0.66323      0.02789      0.00050
      7      7      1      1     -1.07301     -0.10309     -0.00185
      7      7      2      1     -0.22456     -0.01986     -0.00036
      7      7      2      2    -92.62659     -7.54115     -0.13564
      7      7      3      3   -195.64544    -15.70788     -0.28253
      7      7      4      1      0.54145      0.04706      0.00085
      7      7      4      2     40.00005      3.20027      0.05756
      7      7      4      4   -131.86896    -10.36797     -0.18648
      7      7      5      1     -0.28136     -0.01892     -0.00034
      7      7      5      2      0.12984      0.00804      0.00014
      7      7      5      4     -0.10948     -0.00666     -0.00012
      7      7      5      5      0.05294      0.00249      0.00004
      7      7      6      3     -2.41968     -0.13264     -0.00239
      7      7      6      6      5.24281      0.19623      0.00353
      7      7      7      1     -0.20706     -0.01239     -0.00022
      7      7      7      2      6.10155      0.33614      0.00605
      7      7      7      4    -16.61232     -0.89936     -0.01618
      7      7      7      5     -1.13140     -0.04739     -0.00085
      7      7      7      7      5.54475      0.20670      0.00372
      8      1      1      1     31.06808      4.71194      0.08475
      8      2      1      1     -0.16056     -0.02242     -0.00040
      8      2      2      1      0.25630      0.03294      0.00059
      8      2      2      2     25.93235      3.06811      0.05518
      8      3      3      1     -0.02059     -0.00261     -0.00005
      8      3      3      2    -13.87158     -1.61846     -0.02911
      8      4      1      1     -0.37089     -0.05089     -0.00092
      8      4      2      2      8.98216      1.04432      0.01878
      8      4      3      3      6.06451      0.69534      0.01251
      8      4      4      1      0.07868      0.00977      0.00018
      8      4      4      2     -1.96075     -0.22403     -0.00403
      8      4      4      4     -9.49340     -1.06592     -0.01917
      8      5      1      1    -24.00287     -2.54775     -0.04582
      8      5      2      2    -15.63395     -1.40623     -0.02529
      8      5      3      3      1.38582      0.12293      0.00221
      8      5      4      4     -2.24445     -0.19496     -0.00351
      8      5      5      1     -1.00609     -0.07474     -0.00134
      8      5      5      2     -0.30458     -0.02083     -0.00037
      8      5      5      4      0.81034      0.05446      0.00098
      8      5      5      5    -26.15997     -1.36002     -0.02446
      8      6      6      1     -0.05599     -0.00331     -0.00006
      8      6      6      2     -0.37222     -0.02024     -0.00036
      8      6      6      4     -5.73722     -0.30665     -0.00552
      8      6      6      5     -0.47971     -0.01984     -0.00036
      8      7      1      1     -7.01207     -0.66245     -0.01192
      8      7      2      2     70.19723      5.61987      0.10108
      8      7      3      3    -26.42567     -2.08631     -0.03753
      8      7      4      4     -2.12021     -0.16392     -0.00295
      8      7      5      5     -3.13934     -0.14527     -0.00261
      8      7      6      6     -7.15483     -0.26333     -0.00474
      8      7      7      1     -0.44104     -0.02595     -0.00047
      8      7      7      2     -5.25745     -0.28481     -0.00512
      8      7      7      4     -2.42729     -0.12922     -0.00232
      8      7      7      5     -0.50575     -0.02083     -0.00037
      8      7      7      7     -0.80270     -0.02942     -0.00053
      8      8      1      1    -37.75708     -3.50762     -0.06309
      8      8      2      1     -0.18756     -0.01604     -0.00029
      8      8      2      2   -104.38927     -8.21800     -0.14781
      8      8      3      3   -133.93044    -10.39766     -0.18702
      8      8      4      1      0.17233      0.01448      0.00026
      8      8      4      2     16.62792      1.28639      0.02314
      8      8      4      4   -113.94115     -8.66244     -0.15581
      8      8      5      1     -2.97772     -0.19360     -0.00348
      8      8      5      2      0.38178      0.02285      0.00041
      8      8      5      4     -1.30900     -0.07699     -0.00138
      8      8      5      5      4.48056      0.20387      0.00367
      8      8      6      3    -10.80492     -0.57273     -0.01030
      8      8      6      6      9.45331      0.34212      0.00615
      8      8      7      1     -1.59916     -0.09254     -0.00166
      8      8      7      2     11.36423      0.60538      0.01089
      8      8      7      4     -1.37750     -0.07211     -0.00130
      8      8      7      5     -0.72090     -0.02920     -0.00053
      8      8      7      7      6.88840      0.24830      0.00447
      8      8      8      1     -6.94993     -0.39548     -0.00711
      8      8      8      2     -3.98344     -0.20866     -0.00375
      8      8      8      4    -10.32151     -0.53132     -0.00956
      8      8      8      5      6.30526      0.25110      0.00452
      8      8      8      7     -2.91076     -0.10317     -0.00186
      8      8      8      8     37.09042      1.29281      0.02325
      9      1      1      1    -62.86919     -9.28676     -0.16704
      9      2      1      1     -0.02166     -0.00295     -0.00005
      9      2      2      1      0.35448      0.04437      0.00080
      9      2      2      2      6.28801      0.72458      0.01303
      9      3      3      1      0.36125      0.04459      0.00080
      9      3      3      2     -9.45338     -1.07425     -0.01932
      9      4      1      1      0.50438      0.06740      0.00121
      9      4      2      2     -4.75749     -0.53873     -0.00969
      9      4      3      3     12.16056      1.35799      0.02443
      9      4      4      1      0.37492      0.04532      0.00082
      9      4      4      2     -3.66681     -0.40805     -0.00734
      9      4      4      4     -8.59930     -0.94039     -0.01691
      9      5      1      1     51.18605      5.29158      0.09518
      9      5      2      2    -13.65165     -1.19596     -0.02151
      9      5      3      3      2.58516      0.22334      0.00402
      9      5      4      4     -1.68043     -0.14217     -0.00256
      9      5      5      1      1.72120      0.12453      0.00224
      9      5      5      2     -0.33562     -0.02235     -0.00040
      9      5      5      4      0.16130      0.01056      0.00019
      9      5      5      5     28.49100      1.44264      0.02595
      9      6      6      1      0.12749      0.00734      0.00013
      9      6      6      2      3.22980      0.17109      0.00308
      9      6      6      4     -0.67960     -0.03538     -0.00064
      9      6      6      5      0.85722      0.03452      0.00062
      9      7      1      1     15.34264      1.41173      0.02539
      9      7      2      2     53.28688      4.15496      0.07473
      9      7      3      3    -70.37658     -5.41155     -0.09733
      9      7      4      4    -32.34089     -2.43528     -0.04380
      9      7      5      5      3.03621      0.13684      0.00246
      9      7      6      6     -4.06336     -0.14565     -0.00262
      9      7      7      1      0.65010      0.03726      0.00067
      9      7      7      2     -0.19693     -0.01039     -0.00019
      9      7      7      4     -7.53225     -0.39055     -0.00702
      9      7      7      5      1.56430      0.06275      0.00113
      9      7      7      7      5.32009      0.18994      0.00342
      9      8      1      1     80.68003      7.29997      0.13130
      9      8      2      2    -86.34052     -6.62012     -0.11907
      9      8      3      3    -82.65400     -6.24973     -0.11241
      9      8      4      4    -74.03818     -5.48222     -0.09861
      9      8      5      5     -1.43169     -0.06345     -0.00114
      9      8      6      6      5.57433      0.19649      0.00353
      9      8      7      7      5.14416      0.18060      0.00325
      9      8      8      1     12.54702      0.69538      0.01251
      9      8      8      2     -1.13179     -0.05774     -0.00104
      9      8      8      4     -8.36570     -0.41943     -0.00754
      9      8      8      5     -2.44999     -0.09503     -0.00171
      9      8      8      7     -2.82946     -0.09768     -0.00176
      9      8      8      8     19.14432      0.64991      0.01169
      9      9      1      1   -173.22477    -15.26532     -0.27457
      9      9      2      1      0.31681      0.02570      0.00046
      9      9      2      2    -72.77796     -5.43491     -0.09775
      9      9      3      3    -64.22967     -4.73014     -0.08508
      9      9      4      1     -0.32763     -0.02612     -0.00047
      9      9      4      2     -4.64053     -0.34055     -0.00613
      9      9      4      4    -57.29679     -4.13211     -0.07432
      9      9      5      1     -9.76464     -0.60223     -0.01083
      9      9      5      2      1.09542      0.06219      0.00112
      9      9      5      4     -0.74288     -0.04145     -0.00075
      9      9      5      5     -2.18404     -0.09427     -0.00170
      9      9      6      3     -4.48007     -0.22527     -0.00405
      9      9      6      6      3.14997      0.10814      0.00195
      9      9      7      1     -4.76383     -0.26150     -0.00470
      9      9      7      2      3.14092      0.15872      0.00285
      9      9      7      4     -4.16970     -0.20706     -0.00372
      9      9      7      5     -1.09574     -0.04210     -0.00076
      9      9      7      7      7.37278      0.25210      0.00453
      9      9      8      1    -22.71325     -1.22604     -0.02205
      9      9      8      2      0.23948      0.01190      0.00021
      9      9      8      4     -5.33743     -0.26063     -0.00469
      9      9      8      5      3.74437      0.14145      0.00254
      9      9      8      7     -1.35654     -0.04561     -0.00082
      9      9      8      8     16.40788      0.54251      0.00976
      9      9      9      1     42.05168      2.21080      0.03976
      9      9      9      2      4.58537      0.22192      0.00399
      9      9      9      4     -2.69529     -0.12819     -0.00231
      9      9      9      5     -3.38007     -0.12437     -0.00224
      9      9      9      7     -1.76946     -0.05795     -0.00104
      9      9      9      8      9.68283      0.31181      0.00561
      9      9      9      9     18.30387      0.57409      0.01033
     10      1      1      1    -75.16788    -10.57837     -0.19027
     10      2      1      1      0.39656      0.05137      0.00092
     10      2      2      1      0.14915      0.01779      0.00032
     10      2      2      2      3.42467      0.37597      0.00676
     10      3      3      1      0.27067      0.03183      0.00057
     10      3      3      2     -0.37216     -0.04029     -0.00072
     10      4      1      1      0.29754      0.03788      0.00068
     10      4      2      2     10.35981      1.11765      0.02010
     10      4      3      3     -8.60407     -0.91539     -0.01646
     10      4      4      1      0.23483      0.02704      0.00049
     10      4      4      2      3.34259      0.35438      0.00637
     10      4      4      4      0.16087      0.01676      0.00030
     10      5      1      1     87.21325      8.58967      0.15450
     10      5      2      2      9.51844      0.79443      0.01429
     10      5      3      3     -1.41526     -0.11649     -0.00210
     10      5      4      4      1.45880      0.11758      0.00211
     10      5      5      1      1.93694      0.13351      0.00240
     10      5      5      2      0.51107      0.03243      0.00058
     10      5      5      4      0.31739      0.01979      0.00036
     10      5      5      5     29.38260      1.41742      0.02549
     10      6      6      1      0.17977      0.00986      0.00018
     10      6      6      2     -3.00751     -0.15178     -0.00273
     10      6      6      4     -3.26185     -0.16177     -0.00291
     10      6      6      5     -0.95578     -0.03667     -0.00066
     10      7      1      1     25.78740      2.26057      0.04066
     10      7      2      2    -34.86917     -2.59029     -0.04659
     10      7      3      3     48.38446      3.54454      0.06375
     10      7      4      4     23.73169      1.70249      0.03062
     10      7      5      5      1.05062      0.04511      0.00081
     10      7      7      1      0.79914      0.04364      0.00078
     10      7      7      2     -1.94171     -0.09760     -0.00176
     10      7      7      4      4.60480      0.22747      0.00409
     10      7      7      5     -1.67368     -0.06396     -0.00115
     10      7      7      7     -6.43265     -0.21880     -0.00394
     10      8      1      1    136.87539     11.79887      0.21222
     10      8      2      2     46.47063      3.39461      0.06106
     10      8      3      3    -18.93944     -1.36435     -0.02454
     10      8      4      4     -4.81754     -0.33985     -0.00611
     10      8      5      5     -5.52259     -0.23317     -0.00419
     10      8      6      6     -0.09121     -0.00306     -0.00006
     10      8      7      7     -1.16603     -0.03900     -0.00070
     10      8      8      1     12.68437      0.66975      0.01205
     10      8      8      2      1.70462      0.08286      0.00149
     10      8      8      4      2.07906      0.09931      0.00179
     10      8      8      5     -2.14197     -0.07915     -0.00142
     10      8      8      7      2.37704      0.07818      0.00141
     10      8      8      8      3.87684      0.12539      0.00226
     10      9      1      1   -294.41020    -24.71775     -0.44458
     10      9      2      2     43.55209      3.09857      0.05573
     10      9      3      3      2.46267      0.17278      0.00311
     10      9      4      4      9.34830      0.64230      0.01155
     10      9      5      5      9.51065      0.39109      0.00703
     10      9      6      6     -1.09944     -0.03596     -0.00065
     10      9      7      7     -4.12454     -0.13436     -0.00242
     10      9      8      8     -4.83431     -0.15228     -0.00274
     10      9      9      1     45.43271      2.27559      0.04093
     10      9      9      2     -3.86968     -0.17842     -0.00321
     10      9      9      4     -0.50479     -0.02287     -0.00041
     10      9      9      5    -14.69698     -0.51518     -0.00927
     10      9      9      7      2.29365      0.07156      0.00129
     10      9      9      8     -6.84060     -0.20987     -0.00377
     10      9      9      9     14.65049      0.43777      0.00787
     10     10      1      1   -500.70439    -40.04957     -0.72035
     10     10      2      1      0.64425      0.04744      0.00085
     10     10      2      2    -32.61501     -2.21070     -0.03976
     10     10      3      3    -16.09132     -1.07560     -0.01935
     10     10      4      1     -1.62211     -0.11737     -0.00211
     10     10      4      2     -7.68820     -0.51211     -0.00921
     10     10      4      4    -17.96669     -1.17606     -0.02115
     10     10      5      1    -14.11744     -0.79028     -0.01421
     10     10      5      2      1.01494      0.05230      0.00094
     10     10      5      4      0.48592      0.02461      0.00044
     10     10      5      5      3.19616      0.12522      0.00225
     10     10      6      3      1.72235      0.07861      0.00141
     10     10      6      6      3.10375      0.09671      0.00174
     10     10      7      1     -6.10452     -0.30415     -0.00547
     10     10      7      2     -1.14929     -0.05271     -0.00095
     10     10      7      4     -4.03006     -0.18165     -0.00327
     10     10      7      5     -0.67245     -0.02345     -0.00042
     10     10      7      7      5.29606      0.16437      0.00296
     10     10      8      1    -29.47906     -1.44430     -0.02598
     10     10      8      2      0.57718      0.02603      0.00047
     10     10      8      4      1.25690      0.05571      0.00100
     10     10      8      5      2.18952      0.07508      0.00135
     10     10      8      7     -0.73223     -0.02235     -0.00040
     10     10      8      8     21.17719      0.63554      0.01143
     10     10      9      1     54.33452      2.59276      0.04663
     10     10      9      2      4.24346      0.18640      0.00335
     10     10      9      4      1.28269      0.05537      0.00100
     10     10      9      5     -6.42428     -0.21454     -0.00386
     10     10      9      7     -8.18278     -0.24323     -0.00437
     10     10      9      8    -26.45754     -0.77333     -0.01391
     10     10      9      9     65.94308      1.87726      0.03377
     10     10     10      1     65.41047      2.97368      0.05349
     10     10     10      2     -5.11231     -0.21395     -0.00385
     10     10     10      4     -0.50135     -0.02062     -0.00037
     10     10     10      5    -31.88628     -1.01451     -0.01825
     10     10     10      7     -6.19156     -0.17534     -0.00315
     10     10     10      8    -39.74621     -1.10680     -0.01991
     10     10     10      9     91.90889      2.49272      0.04483
     10     10     10     10    201.73918      5.21275      0.09376
     11      3      1      1     -0.09902     -0.01192     -0.00021
     11      3      2      2      8.99847      0.91769      0.01651
     11      3      3      3      3.59228      0.36128      0.00650
     11      4      4      3    -17.72518     -1.74570     -0.03140
     11      5      5      3      1.68886      0.09955      0.00179
     11      6      1      1      0.26841      0.02206      0.00040
     11      6      2      2    122.55176      8.53335      0.15348
     11      6      3      3    -47.74788     -3.27869     -0.05897
     11      6      4      4    -13.82702     -0.92978     -0.01672
     11      6      5      5     -1.76890     -0.07119     -0.00128
     11      6      6      3      3.30671      0.15503      0.00279
     11      6      6      6    -17.50099     -0.56021     -0.01008
     11      7      7      3      3.28355      0.15333      0.00276
     11      7      7      6     -4.18301     -0.13337     -0.00240
     11      8      8      3     -0.12033     -0.00543     -0.00010
     11      8      8      6      9.96062      0.30708      0.00552
     11      9      9      3     -3.37752     -0.14467     -0.00260
     11      9      9      6     -0.46513     -0.01360     -0.00024
     11     10     10      3      0.17270      0.00671      0.00012
     11     10     10      6     -1.86968     -0.04963     -0.00089
     11     11      1      1     -0.57421     -0.04019     -0.00072
     11     11      2      1     -0.18027     -0.01162     -0.00021
     11     11      2      2   -113.08730     -6.70773     -0.12065
     11     11      3      3   -155.86327     -9.11700     -0.16398
     11     11      4      1      0.34494      0.02184      0.00039
     11     11      4      2     23.37615      1.36257      0.02451
     11     11      4      4   -138.56207     -7.93699     -0.14276
     11     11      5      1     -0.27934     -0.01368     -0.00025
     11     11      5      2      3.81303      0.17195      0.00309
     11     11      5      4     -4.55553     -0.20188     -0.00363
     11     11      5      5    -16.15892     -0.55398     -0.00996
     11     11      6      3      3.99686      0.15962      0.00287
     11     11      6      6     30.11570      0.82119      0.01477
     11     11      7      1     -0.15650     -0.00682     -0.00012
     11     11      7      2     -7.37711     -0.29609     -0.00533
     11     11      7      4     18.23555      0.71925      0.01294
     11     11      7      5      0.29211      0.00891      0.00016
     11     11      7      7     17.56954      0.47717      0.00858
     11     11      8      1      0.06974      0.00299      0.00005
     11     11      8      2     -8.11359     -0.32023     -0.00576
     11     11      8      4     15.90932      0.61705      0.01110
     11     11      8      5      0.67162      0.02015      0.00036
     11     11      8      7     15.61262      0.41696      0.00750
     11     11      8      8     37.34764      0.98081      0.01764
     11     11      9      2     -5.55151     -0.21340     -0.00384
     11     11      9      4     15.90043      0.60064      0.01080
     11     11      9      5      1.69772      0.04961      0.00089
     11     11      9      7     14.49666      0.37708      0.00678
     11     11      9      8     34.61454      0.88537      0.01592
     11     11      9      9     22.16319      0.55212      0.00993
     11     11     10      2     -2.26737     -0.08304     -0.00149
     11     11     10      4     -2.43994     -0.08781     -0.00158
     11     11     10      5     -4.18571     -0.11654     -0.00210
     11     11     10      7     -1.70133     -0.04216     -0.00076
     11     11     10      8     -5.06261     -0.12337     -0.00222
     11     11     10      9     -1.46605     -0.03479     -0.00063
     11     11     10     10     -0.91759     -0.02075     -0.00037
     11     11     11      3     33.93079      1.15434      0.02076
     11     11     11      6      3.11114      0.07227      0.00130
     11     11     11     11     57.32176      1.13421      0.02040
     12      1      1      1    -31.00260     -3.95667     -0.07117
     12      2      1      1     -0.11676     -0.01372     -0.00025
     12      2      2      1      0.24310      0.02629      0.00047
     12      2      2      2     -2.28348     -0.22734     -0.00409
     12      3      3      1      0.28808      0.03072      0.00055
     12      3      3      2      7.61140      0.74729      0.01344
     12      4      1      1     -0.15244     -0.01760     -0.00032
     12      4      2      2    -23.34037     -2.28354     -0.04107
     12      4      3      3     12.45265      1.20146      0.02161
     12      4      4      1      0.15696      0.01639      0.00029
     12      4      4      2     -7.16450     -0.68883     -0.01239
     12      4      4      4      4.28140      0.40452      0.00728
     12      5      1      1     32.05959      2.86350      0.05150
     12      5      2      2    -22.47287     -1.70096     -0.03059
     12      5      3      3      2.72171      0.20315      0.00365
     12      5      4      4     -3.00199     -0.21943     -0.00395
     12      5      5      1      0.28300      0.01769      0.00032
     12      5      5      2      0.62867      0.03618      0.00065
     12      5      5      4     -0.96686     -0.05467     -0.00098
     12      5      5      5    -14.24895     -0.62336     -0.01121
     12      6      6      1     -0.13468     -0.00670     -0.00012
     12      6      6      2      0.92574      0.04237      0.00076
     12      6      6      4      7.05748      0.31742      0.00571
     12      6      6      5      0.62689      0.02181      0.00039
     12      7      1      1      9.55451      0.75956      0.01366
     12      7      2      2     89.51537      6.03046      0.10847
     12      7      3      3    -79.06867     -5.25295     -0.09448
     12      7      4      4    -34.83594     -2.26637     -0.04076
     12      7      5      5     -1.26515     -0.04926     -0.00089
     12      7      6      6      2.88165      0.08924      0.00161
     12      7      7      1      0.17863      0.00885      0.00016
     12      7      7      2      1.85690      0.08465      0.00152
     12      7      7      4     -5.61242     -0.25142     -0.00452
     12      7      7      5      0.85951      0.02979      0.00054
     12      7      7      7      8.60019      0.26529      0.00477
     12      8      1      1     50.50500      3.94816      0.07101
     12      8      2      2   -103.19678     -6.83633     -0.12296
     12      8      3      3    107.94716      7.05204      0.12684
     12      8      4      4     56.89671      3.63994      0.06547
     12      8      5      5      2.31639      0.08869      0.00160
     12      8      6      6     -2.74042     -0.08346     -0.00150
     12      8      7      7     -0.68637     -0.02082     -0.00037
     12      8      8      1      3.00595      0.14394      0.00259
     12      8      8      2     -8.87779     -0.39133     -0.00704
     12      8      8      4     -1.58581     -0.06869     -0.00124
     12      8      8      5      2.08273      0.06980      0.00126
     12      8      8      7     -3.41658     -0.10191     -0.00183
     12      8      8      8     -6.17091     -0.18100     -0.00326
     12      9      1      1   -110.64713     -8.42446     -0.15153
     12      9      2      2   -101.60115     -6.55536     -0.11791
     12      9      3      3     37.52142      2.38739      0.04294
     12      9      4      4      6.68137      0.41631      0.00749
     12      9      5      5     -1.07060     -0.03992     -0.00072
     12      9      6      6      4.84504      0.14371      0.00258
     12      9      7      7      6.68523      0.19750      0.00355
     12      9      8      8     -2.95427     -0.08439     -0.00152
     12      9      9      1     12.02623      0.54626      0.00983
     12      9      9      2      3.22140      0.13470      0.00242
     12      9      9      4      3.38577      0.13912      0.00250
     12      9      9      5     -3.83112     -0.12179     -0.00219
     12      9      9      7     -9.14589     -0.25877     -0.00465
     12      9      9      8      4.73172      0.13165      0.00237
     12      9      9      9     14.42069      0.39078      0.00703
     12     10      1      1   -186.58067    -13.53408     -0.24343
     12     10      2      2     81.42163      5.00493      0.09002
     12     10      3      3     42.19813      2.55798      0.04601
     12     10      4      4     47.26118      2.80551      0.05046
     12     10      5      5     -1.69835     -0.06034     -0.00109
     12     10      6      6    -10.36064     -0.29277     -0.00527
     12     10      7      7    -10.83035     -0.30483     -0.00548
     12     10      8      8     -6.26304     -0.17045     -0.00307
     12     10      9      9     20.90418      0.53968      0.00971
     12     10     10      1     16.82470      0.69365      0.01248
     12     10     10      2      6.30396      0.23925      0.00430
     12     10     10      4      1.31024      0.04887      0.00088
     12     10     10      5    -14.81184     -0.42737     -0.00769
     12     10     10      7     -4.35718     -0.11190     -0.00201
     12     10     10      8     -8.07719     -0.20398     -0.00367
     12     10     10      9     38.80317      0.95440      0.01717
     12     10     10     10     84.54065      1.98101      0.03563
     12     11     11      1     -0.13074     -0.00472     -0.00008
     12     11     11      2     11.72976      0.38956      0.00701
     12     11     11      4     -8.81596     -0.28773     -0.00518
     12     11     11      7     -7.53550     -0.16935     -0.00305
     12     11     11      8    -14.06425     -0.31080     -0.00559
     12     11     11      9     -3.81006     -0.08201     -0.00147
     12     11     11     10     -9.81597     -0.20128     -0.00362
     12     12      1      1    -70.21373     -4.61880     -0.08308
     12     12      2      1     -0.36040     -0.02182     -0.00039
     12     12      2      2   -204.19841    -11.38298     -0.20474
     12     12      3      3   -134.48609     -7.39311     -0.13298
     12     12      4      2    -32.44105     -1.77715     -0.03196
     12     12      4      4   -140.26487     -7.55096     -0.13581
     12     12      5      1     -1.53010     -0.07044     -0.00127
     12     12      5      2      5.04312      0.21373      0.00384
     12     12      5      4     -0.28741     -0.01197     -0.00022
     12     12      5      5      0.33151      0.01068      0.00019
     12     12      6      3     11.05427      0.41491      0.00746
     12     12      6      6     27.86015      0.71396      0.01284
     12     12      7      1     -0.45787     -0.01876     -0.00034
     12     12      7      2     -4.67018     -0.17616     -0.00317
     12     12      7      4    -16.65596     -0.61741     -0.01110
     12     12      7      5     -5.40734     -0.15507     -0.00279
     12     12      7      7     29.43827      0.75140      0.01351
     12     12      8      1     -2.54314     -0.10247     -0.00184
     12     12      8      2      5.67667      0.21056      0.00379
     12     12      8      4     13.49688      0.49197      0.00885
     12     12      8      5      3.36409      0.09487      0.00171
     12     12      8      7    -27.53406     -0.69108     -0.01243
     12     12      8      8     61.95538      1.52913      0.02750
     12     12      9      1      3.60715      0.14156      0.00255
     12     12      9      2     12.85303      0.46433      0.00835
     12     12      9      4      7.16927      0.25452      0.00458
     12     12      9      5      4.73633      0.13008      0.00234
     12     12      9      7    -20.23054     -0.49455     -0.00890
     12     12      9      8     28.19497      0.67776      0.01219
     12     12      9      9     40.11658      0.93923      0.01689
     12     12     10      1      3.71721      0.13898      0.00250
     12     12     10      2    -12.45985     -0.42884     -0.00771
     12     12     10      4      0.51833      0.01753      0.00032
     12     12     10      5    -10.96624     -0.28695     -0.00516
     12     12     10      7      6.93105      0.16142      0.00290
     12     12     10      8     -9.03904     -0.20701     -0.00372
     12     12     10      9      2.85389      0.06366      0.00114
     12     12     10     10     52.78455      1.12169      0.02018
     12     12     11      3     13.47524      0.43084      0.00775
     12     12     11      6      2.03488      0.04442      0.00080
     12     12     11     11     27.02206      0.50250      0.00904
     12     12     12      1     -0.11921     -0.00404     -0.00007
     12     12     12      2     22.96764      0.71688      0.01289
     12     12     12      4     -2.87648     -0.08823     -0.00159
     12     12     12      5     -2.71779     -0.06449     -0.00116
     12     12     12      7    -19.33423     -0.40835     -0.00734
     12     12     12      8      4.66806      0.09695      0.00174
     12     12     12      9     25.19971      0.50974      0.00917
     12     12     12     10    -17.25289     -0.33249     -0.00598
     12     12     12     12    111.29676      1.94510      0.03499
     13      1      1      1    -23.51761     -2.80812     -0.05051
     13      2      1      1     -0.05686     -0.00625     -0.00011
     13      2      2      2     -1.54840     -0.14423     -0.00259
     13      3      3      2     -1.47026     -0.13505     -0.00243
     13      4      1      1      0.36486      0.03941      0.00071
     13      4      2      2      1.68007      0.15379      0.00277
     13      4      3      3      5.05296      0.45613      0.00820
     13      4      4      1     -0.03179     -0.00311     -0.00006
     13      4      4      2      0.42513      0.03824      0.00069
     13      4      4      4      7.20814      0.63718      0.01146
     13      5      1      1     25.97583      2.17070      0.03904
     13      5      2      2      2.68314      0.19001      0.00342
     13      5      3      3      0.49521      0.03458      0.00062
     13      5      4      4      1.02170      0.06987      0.00126
     13      5      5      1      0.90104      0.05270      0.00095
     13      5      5      2      0.46629      0.02510      0.00045
     13      5      5      5    -16.63882     -0.68103     -0.01225
     13      6      6      1     -0.09487     -0.00441     -0.00008
     13      6      6      2      1.17140      0.05016      0.00090
     13      6      6      4      0.54206      0.02281      0.00041
     13      6      6      5     -0.41648     -0.01356     -0.00024
     13      7      1      1      7.57777      0.56362      0.01014
     13      7      2      2    -11.22697     -0.70763     -0.01273
     13      7      3      3     -0.18406     -0.01144     -0.00021
     13      7      4      4     -2.74439     -0.16705     -0.00300
     13      7      5      5     -1.74411     -0.06354     -0.00114
     13      7      6      6      1.24415      0.03605      0.00065
     13      7      7      1      0.20732      0.00961      0.00017
     13      7      7      2     -0.39768     -0.01696     -0.00031
     13      7      7      5     -1.04902     -0.03401     -0.00061
     13      7      7      7     -2.19438     -0.06333     -0.00114
     13      8      1      1     41.57194      3.04055      0.05469
     13      8      2      2     13.72187      0.85047      0.01530
     13      8      3      3      6.88818      0.42102      0.00757
     13      8      4      4      8.08795      0.48410      0.00871
     13      8      5      5      4.42073      0.15837      0.00285
     13      8      6      6     -0.82272     -0.02344     -0.00042
     13      8      7      7      0.08263      0.00234      0.00004
     13      8      8      1      5.54552      0.24844      0.00447
     13      8      8      2      1.72183      0.07101      0.00128
     13      8      8      4      2.20723      0.08945      0.00161
     13      8      8      5     10.73147      0.33647      0.00605
     13      8      8      7      1.24025      0.03461      0.00062
     13      8      8      8      5.90003      0.16191      0.00291
     13      9      1      1    -88.79062     -6.32499     -0.11376
     13      9      2      2     11.12658      0.67166      0.01208
     13      9      3      3      3.32994      0.19823      0.00357
     13      9      4      4      4.23784      0.24705      0.00444
     13      9      6      6      0.35971      0.00998      0.00018
     13      9      7      7      0.42468      0.01174      0.00021
     13      9      8      8     -0.48725     -0.01302     -0.00023
     13      9      9      1     18.93138      0.80453      0.01447
     13      9      9      2     -0.83609     -0.03271     -0.00059
     13      9      9      4     -0.30009     -0.01154     -0.00021
     13      9      9      5      0.49742      0.01479      0.00027
     13      9      9      7     -0.69210     -0.01832     -0.00033
     13      9      9      8     -6.63340     -0.17267     -0.00311
     13      9      9      9     10.71720      0.27171      0.00489
     13     10      1      1   -152.36062    -10.34012     -0.18598
     13     10      2      2     -7.17207     -0.41247     -0.00742
     13     10      3      3      1.50120      0.08514      0.00153
     13     10      5      5     -1.15624     -0.03843     -0.00069
     13     10      6      6     -0.23678     -0.00626     -0.00011
     13     10      7      7     -0.45220     -0.01191     -0.00021
     13     10      8      8      1.27910      0.03257      0.00059
     13     10      9      9      7.09175      0.17130      0.00308
     13     10     10      1     20.34973      0.78495      0.01412
     13     10     10      2     -1.68500     -0.05983     -0.00108
     13     10     10      4     -0.46901     -0.01637     -0.00029
     13     10     10      5     -6.24746     -0.16865     -0.00303
     13     10     10      7     -3.92752     -0.09437     -0.00170
     13     10     10      8    -20.85227     -0.49268     -0.00886
     13     10     10      9     39.73499      0.91438      0.01645
     13     10     10     10     48.27382      1.05834      0.01904
     13     11     11      1     -0.14829     -0.00501     -0.00009
     13     11     11      2      2.46759      0.07668      0.00138
     13     11     11      4     -5.31665     -0.16235     -0.00292
     13     11     11      5     -3.26560     -0.07714     -0.00139
     13     11     11      7      1.18698      0.02496      0.00045
     13     11     11      8     -4.36933     -0.09034     -0.00162
     13     11     11     10     -1.12826     -0.02165     -0.00039
     13     12      1      1    -57.06249     -3.51196     -0.06317
     13     12      2      2     17.37665      0.90628      0.01630
     13     12      3      3     -5.44948     -0.28028     -0.00504
     13     12      4      4     -0.57116     -0.02877     -0.00052
     13     12      5      5      1.79318      0.05406      0.00097
     13     12      6      6     -1.13477     -0.02721     -0.00049
     13     12      7      7     -0.79312     -0.01894     -0.00034
     13     12      8      8      1.44114      0.03328      0.00060
     13     12      9      9     -0.96719     -0.02119     -0.00038
     13     12     10     10     16.05252      0.31915      0.00574
     13     12     11     11     -1.57291     -0.02737     -0.00049
     13     12     12      1      0.49708      0.01577      0.00028
     13     12     12      2     -2.14871     -0.06275     -0.00113
     13     12     12      4     -3.10234     -0.08903     -0.00160
     13     12     12      5     -0.60031     -0.01333     -0.00024
     13     12     12      7      1.00815      0.01992      0.00036
     13     12     12      8    -10.29388     -0.20002     -0.00360
     13     12     12      9      7.01203      0.13270      0.00239
     13     12     12     10      6.05138      0.10911      0.00196
     13     12     12     12     -6.82250     -0.11156     -0.00201
     13     13      1      1    -44.70613     -2.57428     -0.04630
     13     13      2      1      0.14292      0.00758      0.00014
     13     13      2      2     -0.93473     -0.04561     -0.00082
     13     13      3      3      1.79217      0.08624      0.00155
     13     13      4      1     -0.12853     -0.00670     -0.00012
     13     13      4      2     -1.07744     -0.05167     -0.00093
     13     13      4      4      1.33446      0.06288      0.00113
     13     13      5      1     -2.06027     -0.08303     -0.00149
     13     13      5      2      1.13509      0.04211      0.00076
     13     13      5      4      0.85987      0.03135      0.00056
     13     13      5      5      8.11338      0.22883      0.00412
     13     13      6      3      0.60549      0.01989      0.00036
     13     13      6      6      0.91129      0.02044      0.00037
     13     13      7      1     -1.07576     -0.03859     -0.00069
     13     13      7      4      0.45524      0.01477      0.00027
     13     13      7      5      0.83604      0.02099      0.00038
     13     13      7      7      0.27612      0.00617      0.00011
     13     13      8      1     -4.40374     -0.15532     -0.00279
     13     13      8      4      2.64447      0.08438      0.00152
     13     13      8      5      9.04848      0.22336      0.00402
     13     13      8      7      2.47186      0.05431      0.00098
     13     13      8      8     20.49271      0.44274      0.00796
     13     13      9      1      7.95189      0.27317      0.00491
     13     13      9      4     -0.37127     -0.01154     -0.00021
     13     13      9      5     -4.35041     -0.10459     -0.00188
     13     13      9      7     -2.11423     -0.04524     -0.00081
     13     13      9      8    -10.67354     -0.22459     -0.00404
     13     13      9      9     10.05841      0.20614      0.00371
     13     13     10      1      7.32683      0.23979      0.00431
     13     13     10      2     -0.29719     -0.00895     -0.00016
     13     13     10      4      1.16468      0.03448      0.00062
     13     13     10      7      2.03152      0.04142      0.00074
     13     13     10      8      9.24771      0.18539      0.00333
     13     13     10      9     -1.14254     -0.02231     -0.00040
     13     13     10     10     30.01857      0.55839      0.01004
     13     13     11      3      1.90181      0.05323      0.00096
     13     13     11      6     -0.46503     -0.00889     -0.00016
     13     13     11     11     -3.33635     -0.05431     -0.00098
     13     13     12      1      1.50863      0.04478      0.00081
     13     13     12      2      0.78417      0.02143      0.00039
     13     13     12      4      0.11540      0.00310      0.00006
     13     13     12      5     -0.24959     -0.00518     -0.00009
     13     13     12      7      1.57433      0.02911      0.00052
     13     13     12      8      8.15347      0.14823      0.00267
     13     13     12      9     -3.86623     -0.06846     -0.00123
     13     13     12     10     15.90339      0.26828      0.00483
     13     13     12     12     11.10938      0.16995      0.00306
     13     13     13      1      1.68622      0.04682      0.00084
     13     13     13      2      1.12826      0.02884      0.00052
     13     13     13      4      2.53500      0.06368      0.00115
     13     13     13      5      9.62614      0.18707      0.00336
     13     13     13      7      1.08733      0.01881      0.00034
     13     13     13      8     13.61611      0.23160      0.00417
     13     13     13      9     -1.76800     -0.02929     -0.00053
     13     13     13     10      6.66791      0.10524      0.00189
     13     13     13     12      3.65252      0.05228      0.00094
     13     13     13     13     29.29557      0.39231      0.00706
     14      3      1      1     -0.33116     -0.03146     -0.00057
     14      3      2      2      5.65585      0.45528      0.00819
     14      3      3      3      6.04799      0.48011      0.00864
     14      4      4      3     -9.41584     -0.73196     -0.01317
     14      5      5      3      0.65358      0.03041      0.00055
     14      6      1      1     -5.40008     -0.35023     -0.00630
     14      6      2      2     50.87658      2.79621      0.05029
     14      6      3      3    -39.27570     -2.12874     -0.03829
     14      6      4      4    -19.93829     -1.05825     -0.01903
     14      6      5      5      1.71687      0.05454      0.00098
     14      6      6      3     -0.14437     -0.00534     -0.00010
     14      6      6      6     -7.00804     -0.17707     -0.00318
     14      7      7      3     -2.51798     -0.09281     -0.00167
     14      7      7      6     -1.00756     -0.02536     -0.00046
     14      8      8      3     -4.21886     -0.15036     -0.00270
     14      8      8      6      9.26442      0.22544      0.00405
     14      9      9      3     -4.64263     -0.15696     -0.00282
     14      9      9      6      0.88007      0.02031      0.00037
     14     10     10      6      0.98233      0.02058      0.00037
     14     11      1      1     34.48258      1.90510      0.03427
     14     11      2      2    -56.78307     -2.65848     -0.04782
     14     11      3      3    -98.89312     -4.56590     -0.08212
     14     11      4      4    -85.48795     -3.86517     -0.06952
     14     11      5      5     15.08761      0.40828      0.00734
     14     11      6      6     16.50941      0.35533      0.00639
     14     11      7      7     10.40833      0.22312      0.00401
     14     11      8      8     32.48741      0.67343      0.01211
     14     11      9      9     15.96326      0.31389      0.00565
     14     11     10     10      0.29639      0.00529      0.00010
     14     11     11      3     15.23301      0.40905      0.00736
     14     11     11      6      6.00565      0.11011      0.00198
     14     11     11     11     38.88946      0.60738      0.01092
     14     12     12      3      6.31303      0.15932      0.00287
     14     12     12      6      7.56375      0.13033      0.00234
     14     12     12     11     20.05733      0.29440      0.00530
     14     13     13      3     -0.54341     -0.01200     -0.00022
     14     13     13     11      2.41953      0.03109      0.00056
     14     14      1      1  -1085.66117    -47.34399     -0.85155
     14     14      2      1      1.59203      0.06391      0.00115
     14     14      2      2    -30.09544     -1.11216     -0.02000
     14     14      3      3    -64.40280     -2.34703     -0.04221
     14     14      4      1     -3.45053     -0.13612     -0.00245
     14     14      4      2     17.35731      0.63034      0.01134
     14     14      4      4    -55.07949     -1.96565     -0.03535
     14     14      5      1    -12.71386     -0.38802     -0.00698
     14     14      5      2      0.78570      0.02207      0.00040
     14     14      5      4     -1.55656     -0.04298     -0.00077
     14     14      5      5    -20.76755     -0.44358     -0.00798
     14     14      6      3     -0.66761     -0.01661     -0.00030
     14     14      6      6      9.37313      0.15924      0.00286
     14     14      7      1     -7.72252     -0.20978     -0.00377
     14     14      7      2     -1.38572     -0.03465     -0.00062
     14     14      7      4      4.99235      0.12268      0.00221
     14     14      7      5     -0.52658     -0.01001     -0.00018
     14     14      7      7      4.63574      0.07844      0.00141
     14     14      8      1    -34.25132     -0.91491     -0.01646
     14     14      8      2     -0.81529     -0.02005     -0.00036
     14     14      8      4      2.29323      0.05541      0.00100
     14     14      8      5      5.54507      0.10366      0.00186
     14     14      8      7      7.56798      0.12592      0.00226
     14     14      8      8     23.63587      0.38672      0.00696
     14     14      9      1     57.16952      1.48732      0.02675
     14     14      9      2     -0.77322     -0.01852     -0.00033
     14     14      9      4      2.62395      0.06175      0.00111
     14     14      9      5    -10.92432     -0.19890     -0.00358
     14     14      9      7      3.43253      0.05563      0.00100
     14     14      9      8     -0.32868     -0.00524     -0.00009
     14     14      9      9     48.15154      0.74734      0.01344
     14     14     10      1     49.58776      1.22907      0.02211
     14     14     10      2     -0.70650     -0.01612     -0.00029
     14     14     10      4      0.64873      0.01455      0.00026
     14     14     10      5    -23.13042     -0.40123     -0.00722
     14     14     10      7     -8.24059     -0.12723     -0.00229
     14     14     10      8    -36.86494     -0.55968     -0.01007
     14     14     10      9     85.07526      1.25798      0.02263
     14     14     10     10    153.89556      2.16799      0.03899
     14     14     11      3      5.72090      0.12126      0.00218
     14     14     11      6      5.72992      0.08292      0.00149
     14     14     11     11     29.84096      0.36787      0.00662
     14     14     12      1      2.47118      0.05555      0.00100
     14     14     12      2      0.79148      0.01638      0.00029
     14     14     12      4     -1.35650     -0.02758     -0.00050
     14     14     12      5     -9.15798     -0.14406     -0.00259
     14     14     12      7     -4.73956     -0.06636     -0.00119
     14     14     12      8    -27.44541     -0.37787     -0.00680
     14     14     12      9     33.32934      0.44693      0.00804
     14     14     12     10     60.51616      0.77312      0.01391
     14     14     12     12     37.19587      0.43094      0.00775
     14     14     13      1     17.65385      0.37126      0.00668
     14     14     13      2     -0.12029     -0.00233     -0.00004
     14     14     13      4      0.17975      0.00342      0.00006
     14     14     13      5     -6.70163     -0.09863     -0.00177
     14     14     13      7     -2.55220     -0.03343     -0.00060
     14     14     13      8    -13.21740     -0.17026     -0.00306
     14     14     13      9     27.98415      0.35109      0.00631
     14     14     13     10     51.48901      0.61543      0.01107
     14     14     13     12     19.64068      0.21290      0.00383
     14     14     13     13     15.61885      0.15840      0.00285
     14     14     14      3      1.58934      0.02659      0.00048
     14     14     14      6      7.71751      0.08816      0.00159
     14     14     14     11    -24.96269     -0.24290     -0.00437
     14     14     14     14   1163.78476      8.93835      0.16077
     15      1      1      1    -32.45216     -3.17674     -0.05714
     15      2      2      1      0.28611      0.02373      0.00043
     15      2      2      2     -0.45940     -0.03508     -0.00063
     15      3      3      1      0.38468      0.03147      0.00057
     15      3      3      2      1.59329      0.11998      0.00216
     15      4      1      1      0.17204      0.01523      0.00027
     15      4      2      2     -3.43221     -0.25756     -0.00463
     15      4      3      3     -1.56185     -0.11558     -0.00208
     15      4      4      1      0.32555      0.02608      0.00047
     15      4      4      2     -1.60539     -0.11839     -0.00213
     15      4      4      4     -2.85498     -0.20690     -0.00372
     15      5      1      1     42.91447      2.94001      0.05288
     15      5      2      2     -3.40612     -0.19774     -0.00356
     15      5      3      3      0.08926      0.00511      0.00009
     15      5      4      4     -0.66317     -0.03718     -0.00067
     15      5      5      1      1.68475      0.08078      0.00145
     15      5      5      4     -0.19323     -0.00838     -0.00015
     15      5      5      5     -5.51064     -0.18491     -0.00333
     15      6      6      1      0.16219      0.00618      0.00011
     15      6      6      2     -1.10202     -0.03869     -0.00070
     15      6      6      4      0.19162      0.00661      0.00012
     15      6      6      5      0.15780      0.00421      0.00008
     15      7      1      1     13.06258      0.79651      0.01433
     15      7      2      2     14.84720      0.76719      0.01380
     15      7      3      3     -4.26788     -0.21748     -0.00391
     15      7      5      5     -4.19817     -0.12538     -0.00226
     15      7      6      6      0.09869      0.00234      0.00004
     15      7      7      1      0.40555      0.01540      0.00028
     15      7      7      2      0.18723      0.00655      0.00012
     15      7      7      4      0.22527      0.00774      0.00014
     15      7      7      5      0.33428      0.00889      0.00016
     15      7      7      7      1.12541      0.02663      0.00048
     15      8      1      1     68.38327      4.10030      0.07375
     15      8      2      2    -16.45352     -0.83603     -0.01504
     15      8      3      3     12.15727      0.60918      0.01096
     15      8      4      4      4.92235      0.24154      0.00434
     15      8      5      5    -13.99905     -0.41113     -0.00739
     15      8      6      6     -0.24566     -0.00574     -0.00010
     15      8      7      7     -1.12434     -0.02616     -0.00047
     15      8      8      1      6.56934      0.24128      0.00434
     15      8      8      2     -1.91038     -0.06459     -0.00116
     15      8      8      4     -1.25931     -0.04184     -0.00075
     15      8      8      5     -0.13642     -0.00351     -0.00006
     15      8      8      7     -1.67425     -0.03830     -0.00069
     15      8      8      8     -7.97985     -0.17952     -0.00323
     15      9      1      1   -147.37651     -8.60668     -0.15480
     15      9      2      2    -15.45658     -0.76492     -0.01376
     15      9      3      3      5.86920      0.28644      0.00515
     15      9      4      4      1.02397      0.04894      0.00088
     15      9      5      5     17.50846      0.50081      0.00901
     15      9      6      6      0.66182      0.01506      0.00027
     15      9      7      7      0.50776      0.01151      0.00021
     15      9      8      8      4.58711      0.10051      0.00181
     15      9      9      1     21.56265      0.75124      0.01351
     15      9      9      2     -0.17136     -0.00550     -0.00010
     15      9      9      4      0.72359      0.02281      0.00041
     15      9      9      5     -1.28886     -0.03143     -0.00057
     15      9      9      7     -2.81759     -0.06115     -0.00110
     15      9      9      8     -5.80566     -0.12390     -0.00223
     15      9      9      9     16.77384      0.34864      0.00627
     15     10      1      1   -249.81065    -13.89884     -0.24999
     15     10      2      2     11.35737      0.53548      0.00963
     15     10      3      3      3.13642      0.14583      0.00262
     15     10      4      4      4.39907      0.20030      0.00360
     15     10      5      5     -6.64071     -0.18097     -0.00325
     15     10      6      6     -1.19641     -0.02593     -0.00047
     15     10      7      7     -1.29462     -0.02795     -0.00050
     15     10      8      8     -0.87929     -0.01836     -0.00033
     15     10      9      9     25.47197      0.50439      0.00907
     15     10     10      1     26.65956      0.84304      0.01516
     15     10     10      2      0.83537      0.02432      0.00044
     15     10     10      4      0.21412      0.00613      0.00011
     15     10     10      5    -24.04237     -0.53209     -0.00957
     15     10     10      7     -6.70957     -0.13217     -0.00238
     15     10     10      8    -28.12042     -0.54469     -0.00980
     15     10     10      9     61.98055      1.16929      0.02103
     15     10     10     10    102.86644      1.84885      0.03325
     15     11     11      1      0.07780      0.00215      0.00004
     15     11     11      2      0.91639      0.02334      0.00042
     15     11     11      4      0.24421      0.00611      0.00011
     15     11     11      5      1.08947      0.02110      0.00038
     15     11     11      7     -2.33079     -0.04018     -0.00072
     15     11     11      8     -1.49545     -0.02535     -0.00046
     15     11     11      9     -1.82654     -0.03015     -0.00054
     15     11     11     10     -0.28846     -0.00454     -0.00008
     15     12      1      1    -93.58984     -4.72217     -0.08493
     15     12      2      2    -30.00377     -1.28288     -0.02307
     15     12      3      3    -13.05599     -0.55051     -0.00990
     15     12      4      4    -15.54367     -0.64182     -0.01154
     15     12      5      5     -2.76122     -0.06824     -0.00123
     15     12      6      6      3.51144      0.06902      0.00124
     15     12      7      7      3.73757      0.07317      0.00132
     15     12      8      8      6.57410      0.12445      0.00224
     15     12      9      9     14.29679      0.25674      0.00462
     15     12     10     10     42.31363      0.68969      0.01240
     15     12     11     11      4.54002      0.06476      0.00116
     15     12     12      1      0.60589      0.01576      0.00028
     15     12     12      2      2.49032      0.05962      0.00107
     15     12     12      4      1.28687      0.03028      0.00054
     15     12     12      5     -1.19574     -0.02176     -0.00039
     15     12     12      7     -5.04651     -0.08175     -0.00147
     15     12     12      8     -4.24446     -0.06761     -0.00122
     15     12     12      9     16.73225      0.25960      0.00467
     15     12     12     10      9.25393      0.13679      0.00246
     15     12     12     12     20.65063      0.27682      0.00498
     15     13      1      1    -75.34470     -3.55678     -0.06397
     15     13      2      2      2.76484      0.11060      0.00199
     15     13      3      3     -1.25131     -0.04936     -0.00089
     15     13      4      4     -0.37141     -0.01435     -0.00026
     15     13      5      5     -6.06524     -0.14024     -0.00252
     15     13      6      6     -0.71890     -0.01322     -0.00024
     15     13      7      7      0.15046      0.00276      0.00005
     15     13      8      8     -4.10539     -0.07271     -0.00131
     15     13      9      9      6.63476      0.11147      0.00200
     15     13     10     10     32.35636      0.49343      0.00887
     15     13     11     11      0.25221      0.00337      0.00006
     15     13     12     12      2.53795      0.03183      0.00057
     15     13     13      1      2.34713      0.05343      0.00096
     15     13     13      2     -0.63304     -0.01327     -0.00024
     15     13     13      4     -1.03102     -0.02123     -0.00038
     15     13     13      5     -5.87514     -0.09360     -0.00168
     15     13     13      7     -1.27257     -0.01805     -0.00032
     15     13     13      8     -7.39884     -0.10317     -0.00186
     15     13     13      9      6.28025      0.08529      0.00153
     15     13     13     10      4.22354      0.05465      0.00098
     15     13     13     12      1.39953      0.01642      0.00030
     15     13     13     13     -4.77441     -0.05242     -0.00094
     15     14     14      1     16.90181      0.29140      0.00524
     15     14     14      2      0.19115      0.00303      0.00005
     15     14     14      4     -0.27824     -0.00434     -0.00008
     15     14     14      5    -15.19824     -0.18338     -0.00330
     15     14     14      7     -5.16763     -0.05550     -0.00100
     15     14     14      8    -26.05316     -0.27513     -0.00495
     15     14     14      9     52.43837      0.53935      0.00970
     15     14     14     10     90.47962      0.88661      0.01595
     15     14     14     12     37.04609      0.32921      0.00592
     15     14     14     13     30.63569      0.25471      0.00458
     15     15      1      1   -124.11871     -4.80348     -0.08640
     15     15      2      1      0.19452      0.00693      0.00012
     15     15      2      2     -4.66243     -0.15291     -0.00275
     15     15      3      3     -0.96505     -0.03121     -0.00056
     15     15      4      1     -0.41252     -0.01444     -0.00026
     15     15      4      2     -1.70467     -0.05494     -0.00099
     15     15      4      4     -1.71601     -0.05435     -0.00098
     15     15      5      1     -1.41721     -0.03838     -0.00069
     15     15      5      2     -0.18990     -0.00473     -0.00009
     15     15      5      5    -24.40811     -0.46267     -0.00832
     15     15      6      3     -0.15244     -0.00337     -0.00006
     15     15      6      6      0.92825      0.01399      0.00025
     15     15      7      1     -1.11330     -0.02684     -0.00048
     15     15      7      2      0.18985      0.00421      0.00008
     15     15      7      4     -0.10975     -0.00239     -0.00004
     15     15      7      5     -1.24188     -0.02095     -0.00038
     15     15      7      7      0.60390      0.00907      0.00016
     15     15      8      1     -5.58373     -0.13236     -0.00238
     15     15      8      4      0.10655      0.00228      0.00004
     15     15      8      5      8.40241      0.13940      0.00251
     15     15      8      8      4.94477      0.07180      0.00129
     15     15      9      1      9.64964      0.22279      0.00401
     15     15      9      2     -0.21340     -0.00454     -0.00008
     15     15      9      4     -0.16862     -0.00352     -0.00006
     15     15      9      5    -11.65967     -0.18840     -0.00339
     15     15      9      7     -2.66175     -0.03828     -0.00069
     15     15      9      8     -5.06333     -0.07161     -0.00129
     15     15      9      9     16.02943      0.22079      0.00397
     15     15     10      1     10.20852      0.22455      0.00404
     15     15     10      5    -13.02316     -0.20048     -0.00361
     15     15     10      7     -2.06268     -0.02826     -0.00051
     15     15     10      8    -12.68305     -0.17088     -0.00307
     15     15     10      9     28.45916      0.37346      0.00672
     15     15     10     10     56.58007      0.70736      0.01272
     15     15     11      6     -0.28495     -0.00366     -0.00007
     15     15     11     11      1.27872      0.01399      0.00025
     15     15     12      1      2.07008      0.04129      0.00074
     15     15     12      2     -0.17000     -0.00312     -0.00006
     15     15     12      5     -0.76841     -0.01073     -0.00019
     15     15     12      7     -2.19678     -0.02730     -0.00049
     15     15     12      8     -4.65360     -0.05686     -0.00102
     15     15     12      9     13.81181      0.16437      0.00296
     15     15     12     10     21.09138      0.23913      0.00430
     15     15     12     12     12.61220      0.12968      0.00233
     15     15     13      1      2.35956      0.04404      0.00079
     15     15     13      2      0.24495      0.00421      0.00008
     15     15     13      4      0.27217      0.00460      0.00008
     15     15     13      5     -3.17694     -0.04150     -0.00075
     15     15     13      7      0.31418      0.00365      0.00007
     15     15     13      8     -0.31479     -0.00360     -0.00006
     15     15     13      9      4.26071      0.04744      0.00085
     15     15     13     10     17.33159      0.18385      0.00331
     15     15     13     12      6.90377      0.06641      0.00119
     15     15     13     13     10.77931      0.09702      0.00174
     15     15     14      3     -0.24887     -0.00370     -0.00007
     15     15     14      6      0.32517      0.00330      0.00006
     15     15     14     11     -1.04507     -0.00902     -0.00016
     15     15     14     14     51.13765      0.34856      0.00627
     15     15     15      1      2.83083      0.04331      0.00078
     15     15     15      2     -0.43835     -0.00617     -0.00011
     15     15     15      4     -0.15512     -0.00215     -0.00004
     15     15     15      5     -9.69513     -0.10382     -0.00187
     15     15     15      7     -2.04976     -0.01954     -0.00035
     15     15     15      8     -3.59769     -0.03372     -0.00061
     15     15     15      9     12.92652      0.11799      0.00212
     15     15     15     10     27.45661      0.23877      0.00429
     15     15     15     12     13.55172      0.10687      0.00192
     15     15     15     13     11.34647      0.08372      0.00151
     15     15     15     15     25.69061      0.15540      0.00280
     16      3      1      1     -0.32927     -0.02833     -0.00051
     16      3      2      2    -10.11997     -0.73778     -0.01327
     16      3      3      3     -3.57139     -0.25676     -0.00462
     16      4      4      3     14.60429      1.02820      0.01849
     16      5      5      3     -0.47177     -0.01988     -0.00036
     16      6      1      1     -5.33693     -0.31348     -0.00564
     16      6      2      2    -76.37010     -3.80140     -0.06837
     16      6      3      3     67.90892      3.33345      0.05996
     16      6      4      4     36.41575      1.75049      0.03148
     16      6      5      5     -1.60013     -0.04604     -0.00083
     16      6      6      3      2.84516      0.09536      0.00172
     16      6      6      6     12.34767      0.28255      0.00508
     16      7      7      3      2.63906      0.08810      0.00158
     16      7      7      6     -1.08892     -0.02482     -0.00045
     16      8      8      3      6.80431      0.21963      0.00395
     16      8      8      6    -12.69936     -0.27987     -0.00503
     16      9      9      3      7.01328      0.21474      0.00386
     16      9      9      6     -0.38340     -0.00802     -0.00014
     16     10     10      3     -0.58154     -0.01616     -0.00029
     16     10     10      6     -0.92322     -0.01752     -0.00032
     16     11      1      1     30.68826      1.53553      0.02762
     16     11      2      2     83.41535      3.53695      0.06362
     16     11      3      3    128.12704      5.35759      0.09636
     16     11      4      4    112.88615      4.62246      0.08314
     16     11      5      5    -18.04429     -0.44222     -0.00795
     16     11      6      6    -26.74620     -0.52135     -0.00938
     16     11      7      7    -10.79370     -0.20956     -0.00377
     16     11      8      8    -47.61592     -0.89391     -0.01608
     16     11      9      9    -25.20728     -0.44890     -0.00807
     16     11     10     10    -11.42030     -0.18460     -0.00332
     16     11     11      3    -17.03112     -0.41420     -0.00745
     16     11     11      6     -7.35428     -0.12212     -0.00220
     16     11     11     11    -55.31616     -0.78243     -0.01407
     16     12     12      3     -9.60791     -0.21960     -0.00395
     16     12     12      6    -13.75622     -0.21467     -0.00386
     16     12     12     11    -31.63890     -0.42059     -0.00756
     16     13     13      3      1.15247      0.02306      0.00041
     16     13     13     11     -5.19062     -0.06040     -0.00109
     16     14      1      1   -978.14664    -38.63159     -0.69484
     16     14      2      2     41.75893      1.39760      0.02514
     16     14      3      3     84.54392      2.79038      0.05019
     16     14      4      4     72.47026      2.34231      0.04213
     16     14      5      5     25.34766      0.49033      0.00882
     16     14      6      6    -15.94869     -0.24539     -0.00441
     16     14      7      7     -7.55350     -0.11575     -0.00208
     16     14      8      8    -22.20062     -0.32897     -0.00592
     16     14      9      9     25.17650      0.35389      0.00637
     16     14     10     10    147.29420      1.87925      0.03380
     16     14     11     11    -38.25288     -0.42708     -0.00768
     16     14     12     12      4.76196      0.04997      0.00090
     16     14     13     13     17.87979      0.16422      0.00295
     16     14     14      3     -2.15086     -0.03259     -0.00059
     16     14     14      6     -3.75373     -0.03883     -0.00070
     16     14     14     11    -60.01600     -0.52889     -0.00951
     16     14     14     14   1014.85102      7.05919      0.12697
     16     15     15      3      0.29341      0.00395      0.00007
     16     15     15      6      0.38049      0.00349      0.00006
     16     15     15     11     -1.30055     -0.01017     -0.00018
     16     15     15     14     42.76885      0.26401      0.00475
     16     16      1      1   -884.47342    -31.63672     -0.56903
     16     16      2      1      1.04925      0.03455      0.00062
     16     16      2      2    -62.70569     -1.90068     -0.03419
     16     16      3      3   -116.61886     -3.48593     -0.06270
     16     16      4      1     -2.49633     -0.08078     -0.00145
     16     16      4      2     27.59534      0.82198      0.01478
     16     16      4      4   -101.91976     -2.98340     -0.05366
     16     16      5      1     -3.93818     -0.09858     -0.00177
     16     16      5      2      0.39327      0.00906      0.00016
     16     16      5      4     -1.84053     -0.04168     -0.00075
     16     16      5      5    -30.05082     -0.52648     -0.00947
     16     16      6      3     -1.10299     -0.02251     -0.00040
     16     16      6      6     25.82259      0.35983      0.00647
     16     16      7      1     -3.86806     -0.08618     -0.00155
     16     16      7      2     -0.70022     -0.01436     -0.00026
     16     16      7      4      9.97712      0.20110      0.00362
     16     16      7      5     -0.80740     -0.01259     -0.00023
     16     16      7      7      7.29176      0.10120      0.00182
     16     16      8      1    -16.14576     -0.35375     -0.00636
     16     16      8      2     -1.35866     -0.02740     -0.00049
     16     16      8      4      3.08576      0.06116      0.00110
     16     16      8      5      5.09106      0.07806      0.00140
     16     16      8      7      8.36549      0.11417      0.00205
     16     16      8      8     38.07060      0.51092      0.00919
     16     16      9      1     24.19612      0.51632      0.00929
     16     16      9      2     -1.24883     -0.02453     -0.00044
     16     16      9      4      2.32137      0.04481      0.00081
     16     16      9      5     -8.94512     -0.13359     -0.00240
     16     16      9      7      7.88134      0.10476      0.00188
     16     16      9      8     21.44922      0.28036      0.00504
     16     16      9      9     40.95309      0.52135      0.00938
     16     16     10      1     19.16904      0.38971      0.00701
     16     16     10      2      0.81127      0.01518      0.00027
     16     16     10      4      0.35438      0.00652      0.00012
     16     16     10      5    -21.54676     -0.30657     -0.00551
     16     16     10      7     -8.74098     -0.11069     -0.00199
     16     16     10      8    -30.20590     -0.37615     -0.00677
     16     16     10      9     69.99468      0.84893      0.01527
     16     16     10     10    125.16882      1.44631      0.02601
     16     16     11      3      6.28655      0.10929      0.00197
     16     16     11      6     11.97344      0.14213      0.00256
     16     16     11     11     58.04002      0.58687      0.01056
     16     16     12      1     -1.11147     -0.02049     -0.00037
     16     16     12      2     -0.95923     -0.01628     -0.00029
     16     16     12      4     -4.27880     -0.07136     -0.00128
     16     16     12      5     -7.46107     -0.09627     -0.00173
     16     16     12      7     -2.96907     -0.03410     -0.00061
     16     16     12      8    -40.26564     -0.45472     -0.00818
     16     16     12      9     19.85103      0.21834      0.00393
     16     16     12     10     44.19016      0.46306      0.00833
     16     16     12     12     48.32225      0.45920      0.00826
     16     16     13      1      4.84782      0.08362      0.00150
     16     16     13      4      0.99162      0.01547      0.00028
     16     16     13      5     -3.19359     -0.03855     -0.00069
     16     16     13      7     -1.11922     -0.01203     -0.00022
     16     16     13      8    -11.02470     -0.11648     -0.00210
     16     16     13      9     16.06353      0.16530      0.00297
     16     16     13     10     38.96601      0.38202      0.00687
     16     16     13     12     17.85516      0.15875      0.00286
     16     16     13     13      8.99659      0.07484      0.00135
     16     16     14      3      0.81975      0.01125      0.00020
     16     16     14      6     15.13176      0.14177      0.00255
     16     16     14     11     10.21915      0.08156      0.00147
     16     16     14     14    970.42717      6.11341      0.10996
     16     16     15      1      4.77173      0.06748      0.00121
     16     16     15      4     -1.12717     -0.01442     -0.00026
     16     16     15      5    -11.77880     -0.11657     -0.00210
     16     16     15      7     -4.18625     -0.03688     -0.00066
     16     16     15      8    -19.54773     -0.16932     -0.00305
     16     16     15      9     37.98643      0.32047      0.00576
     16     16     15     10     71.76596      0.57681      0.01037
     16     16     15     12     32.55286      0.23728      0.00427
     16     16     15     13     23.71814      0.16175      0.00291
     16     16     15     15     42.69720      0.23871      0.00429
     16     16     16      3     -1.72780     -0.02147     -0.00039
     16     16     16      6    -12.64350     -0.10729     -0.00193
     16     16     16     11    -76.16849     -0.55057     -0.00990
     16     16     16     14    806.63671      4.60221      0.08278
     16     16     16     16    852.17322      4.40336      0.07920
     17      1      1      1     12.86606      1.06689      0.01919
     17      2      1      1     -0.27087     -0.02068     -0.00037
     17      2      2      1      0.16756      0.01177      0.00021
     17      2      2      2     12.46322      0.80621      0.01450
     17      3      3      1      0.08379      0.00581      0.00010
     17      3      3      2      5.92591      0.37803      0.00680
     17      4      1      1     -0.28972     -0.02173     -0.00039
     17      4      2      2    -10.39717     -0.66094     -0.01189
     17      4      3      3      6.54759      0.41046      0.00738
     17      4      4      1      0.03892      0.00264      0.00005
     17      4      4      2     -5.01395     -0.31322     -0.00563
     17      4      4      4      4.77144      0.29292      0.00527
     17      5      1      1    -33.85518     -1.96475     -0.03534
     17      5      2      2    -17.99365     -0.88491     -0.01592
     17      5      3      3      1.07158      0.05197      0.00093
     17      5      4      4     -2.75361     -0.13078     -0.00235
     17      5      5      1     -1.20414     -0.04891     -0.00088
     17      5      5      2      0.67540      0.02525      0.00045
     17      5      5      4      0.10674      0.00392      0.00007
     17      5      5      5      0.84310      0.02396      0.00043
     17      6      6      1      0.13085      0.00423      0.00008
     17      6      6      2     -6.60716     -0.19648     -0.00353
     17      6      6      4      2.47064      0.07220      0.00130
     17      6      6      5      1.01539      0.02296      0.00041
     17      7      1      1    -10.23474     -0.52866     -0.00951
     17      7      2      2     76.56876      3.35156      0.06028
     17      7      3      3    -33.60397     -1.45055     -0.02609
     17      7      4      4     -7.07336     -0.29900     -0.00538
     17      7      5      5     -2.46945     -0.06248     -0.00112
     17      7      6      6     -0.12336     -0.00248     -0.00004
     17      7      7      1     -0.18979     -0.00611     -0.00011
     17      7      7      2     -0.08559     -0.00253     -0.00005
     17      7      7      5      1.66573      0.03751      0.00067
     17      7      7      7      4.90693      0.09835      0.00177
     17      8      1      1    -53.39257     -2.71197     -0.04878
     17      8      2      2    -84.65114     -3.64362     -0.06554
     17      8      3      3     80.11942      3.40083      0.06117
     17      8      4      4     40.44374      1.68113      0.03024
     17      8      5      5     -4.92613     -0.12255     -0.00220
     17      8      6      6     -0.26599     -0.00526     -0.00009
     17      8      7      7     -0.47968     -0.00945     -0.00017
     17      8      8      1     -3.85253     -0.11986     -0.00216
     17      8      8      2    -10.93887     -0.31329     -0.00564
     17      8      8      4     -1.03296     -0.02907     -0.00052
     17      8      8      5      6.95400      0.15142      0.00272
     17      8      8      7     -4.91217     -0.09520     -0.00171
     17      8      8      8    -13.67666     -0.26064     -0.00469
     17      9      1      1    114.52367      5.66553      0.10190
     17      9      2      2    -81.11949     -3.40069     -0.06117
     17      9      3      3     35.66657      1.47451      0.02652
     17      9      4      4      9.28201      0.37578      0.00676
     17      9      5      5      8.24717      0.19983      0.00359
     17      9      6      6      5.55978      0.10715      0.00193
     17      9      7      7      3.09639      0.05944      0.00107
     17      9      9      1    -13.20844     -0.38982     -0.00701
     17      9      9      2     -1.34064     -0.03642     -0.00066
     17      9      9      4      3.09913      0.08274      0.00149
     17      9      9      5     10.52747      0.21744      0.00391
     17      9      9      7     -7.28671     -0.13396     -0.00241
     17      9      9      8      9.85775      0.17821      0.00321
     17      9      9      9     -7.13317     -0.12559     -0.00226
     17     10      1      1    194.51622      9.16771      0.16489
     17     10      2      2     64.16248      2.56261      0.04609
     17     10      3      3     24.44376      0.96276      0.01732
     17     10      4      4     30.95365      1.19389      0.02147
     17     10      5      5     -9.60778     -0.22179     -0.00399
     17     10      6      6     -8.30384     -0.15246     -0.00274
     17     10      7      7     -6.97250     -0.12751     -0.00229
     17     10      8      8    -20.91711     -0.36988     -0.00665
     17     10      9      9    -31.33407     -0.52561     -0.00945
     17     10     10      1    -17.27103     -0.46265     -0.00832
     17     10     10      2      2.94960      0.07274      0.00131
     17     10     10      4      0.23890      0.00579      0.00010
     17     10     10      5     18.31242      0.34331      0.00617
     17     10     10      7      1.82226      0.03041      0.00055
     17     10     10      8     24.90015      0.40857      0.00735
     17     10     10      9    -47.56974     -0.76021     -0.01367
     17     10     10     10    -96.43120     -1.46819     -0.02641
     17     11     11      2      6.49199      0.14009      0.00252
     17     11     11      4     -4.65025     -0.09861     -0.00177
     17     11     11      5      1.63662      0.02685      0.00048
     17     11     11      7    -11.21420     -0.16375     -0.00295
     17     11     11      8    -14.59098     -0.20951     -0.00377
     17     11     11      9     -7.21401     -0.10089     -0.00181
     17     11     11     10     -6.29850     -0.08392     -0.00151
     17     12      1      1     73.15356      3.12670      0.05624
     17     12      2      2   -161.90274     -5.86410     -0.10547
     17     12      3      3    -87.95092     -3.14148     -0.05650
     17     12      4      4    -97.27284     -3.40242     -0.06120
     17     12      5      5     -3.86246     -0.08086     -0.00145
     17     12      6      6     20.87375      0.34757      0.00625
     17     12      7      7     20.86578      0.34605      0.00622
     17     12      8      8     46.86493      0.75155      0.01352
     17     12      9      9     12.62691      0.19208      0.00345
     17     12     10     10    -24.62078     -0.33995     -0.00611
     17     12     11     11     24.17009      0.29204      0.00525
     17     12     12      1      0.34554      0.00761      0.00014
     17     12     12      2      9.95584      0.20191      0.00363
     17     12     12      4      1.72715      0.03442      0.00062
     17     12     12      5      9.69123      0.14942      0.00269
     17     12     12      7    -19.04523     -0.26136     -0.00470
     17     12     12      8     14.77082      0.19932      0.00359
     17     12     12      9     12.45636      0.16371      0.00294
     17     12     12     10    -42.51193     -0.53231     -0.00957
     17     12     12     12     82.58026      0.93773      0.01687
     17     13      1      1     58.28945      2.33094      0.04193
     17     13      2      2     14.15260      0.47959      0.00863
     17     13      3      3     -4.34303     -0.14514     -0.00261
     17     13      6      6     -1.21109     -0.01887     -0.00034
     17     13      7      7      0.85682      0.01329      0.00024
     17     13      8      8     -3.67799     -0.05518     -0.00099
     17     13      9      9     -8.02591     -0.11423     -0.00205
     17     13     10     10    -25.96432     -0.33541     -0.00603
     17     13     11     11      0.32626      0.00369      0.00007
     17     13     12     12     -7.60663     -0.08081     -0.00145
     17     13     13      1     -0.77227     -0.01489     -0.00027
     17     13     13      2     -1.71524     -0.03045     -0.00055
     17     13     13      4      0.43444      0.00758      0.00014
     17     13     13      5      6.87915      0.09284      0.00167
     17     13     13      7      0.66986      0.00805      0.00014
     17     13     13     10    -10.09329     -0.11063     -0.00199
     17     13     13     12     -1.47716     -0.01468     -0.00026
     17     13     13     13      2.00061      0.01861      0.00033
     17     14     14      1     -8.37915     -0.12237     -0.00220
     17     14     14      2      0.51712      0.00695      0.00013
     17     14     14      4     -1.32298     -0.01748     -0.00031
     17     14     14      5     13.72683      0.14030      0.00252
     17     14     14      7      0.65934      0.00600      0.00011
     17     14     14      8     11.25583      0.10069      0.00181
     17     14     14      9    -49.00450     -0.42697     -0.00768
     17     14     14     10    -76.24693     -0.63291     -0.01138
     17     14     14     12    -15.38124     -0.11579     -0.00208
     17     14     14     13    -21.54406     -0.15173     -0.00273
     17     15      1      1     95.65908      3.13605      0.05641
     17     15      2      2    -23.95815     -0.66559     -0.01197
     17     15      3      3     -8.54250     -0.23404     -0.00421
     17     15      4      4    -11.20050     -0.30050     -0.00540
     17     15      5      5    -15.71575     -0.25235     -0.00454
     17     15      6      6      2.81073      0.03590      0.00065
     17     15      7      7      2.34966      0.02989      0.00054
     17     15      8      8      6.66206      0.08194      0.00147
     17     15      9      9     -5.74180     -0.06700     -0.00121
     17     15     10     10    -41.54718     -0.44001     -0.00791
     17     15     11     11      3.20707      0.02972      0.00053
     17     15     12     12      8.09726      0.07053      0.00127
     17     15     13     13     -3.24932     -0.02477     -0.00045
     17     15     14     14    -34.12211     -0.19702     -0.00354
     17     15     15      1     -1.58667     -0.02056     -0.00037
     17     15     15      2     -0.66122     -0.00789     -0.00014
     17     15     15      5      6.03060      0.05470      0.00098
     17     15     15      7     -0.38505     -0.00311     -0.00006
     17     15     15      8      6.96096      0.05526      0.00099
     17     15     15      9    -11.43320     -0.08840     -0.00159
     17     15     15     10    -24.74548     -0.18229     -0.00328
     17     15     15     12     -4.12343     -0.02755     -0.00050
     17     15     15     13     -9.40236     -0.05877     -0.00106
     17     15     15     15     -8.50287     -0.04357     -0.00078
     17     16     16      1     -1.28743     -0.01542     -0.00028
     17     16     16      2     -1.11024     -0.01224     -0.00022
     17     16     16      4     -2.41482     -0.02617     -0.00047
     17     16     16      5     10.79395      0.09049      0.00163
     17     16     16      7     -1.22289     -0.00913     -0.00016
     17     16     16      8     -5.59133     -0.04103     -0.00074
     17     16     16      9    -46.89049     -0.33510     -0.00603
     17     16     16     10    -66.08376     -0.44994     -0.00809
     17     16     16     12      9.75944      0.06026      0.00108
     17     16     16     13    -15.05820     -0.08699     -0.00156
     17     16     16     15    -27.18624     -0.12875     -0.00232
     17     17      1      1    -74.95466     -2.08158     -0.03744
     17     17      2      2   -128.24617     -3.01811     -0.05428
     17     17      3      3    -58.77711     -1.36410     -0.02454
     17     17      4      1      0.22038      0.00554      0.00010
     17     17      4      2    -33.45820     -0.77378     -0.01392
     17     17      4      4    -69.71911     -1.58450     -0.02850
     17     17      5      1     -1.21931     -0.02370     -0.00043
     17     17      5      2      1.59810      0.02859      0.00051
     17     17      5      4      1.30712      0.02298      0.00041
     17     17      5      5     -8.21978     -0.11181     -0.00201
     17     17      6      3      2.23556      0.03542      0.00064
     17     17      6      6     16.84728      0.18227      0.00328
     17     17      7      1     -0.57052     -0.00987     -0.00018
     17     17      7      2      1.34029      0.02134      0.00038
     17     17      7      4     -8.61387     -0.13480     -0.00242
     17     17      7      5     -3.51859     -0.04260     -0.00077
     17     17      7      7     16.02145      0.17264      0.00311
     17     17      8      1     -1.51581     -0.02578     -0.00046
     17     17      8      2      0.39909      0.00625      0.00011
     17     17      8      4      1.24250      0.01912      0.00034
     17     17      8      5      5.46281      0.06503      0.00117
     17     17      8      7    -19.41192     -0.20569     -0.00370
     17     17      8      8     33.82314      0.35242      0.00634
     17     17      9      1      3.52003      0.05832      0.00105
     17     17      9      2      2.34096      0.03570      0.00064
     17     17      9      4     -0.19375     -0.00290     -0.00005
     17     17      9      5     -1.03286     -0.01198     -0.00022
     17     17      9      7    -14.09276     -0.14544     -0.00262
     17     17      9      8     24.77524      0.25143      0.00452
     17     17      9      9     27.16078      0.26846      0.00483
     17     17     10      1      3.37120      0.05321      0.00096
     17     17     10      2     -1.84927     -0.02687     -0.00048
     17     17     10      4     -0.60521     -0.00864     -0.00016
     17     17     10      5     -9.57234     -0.10574     -0.00190
     17     17     10      7      4.49616      0.04421      0.00080
     17     17     10      8    -20.33852     -0.19664     -0.00354
     17     17     10      9     15.37673      0.14480      0.00260
     17     17     10     10     40.55522      0.36383      0.00654
     17     17     11      3     -1.98721     -0.02682     -0.00048
     17     17     11     11     19.86467      0.15595      0.00280
     17     17     12      1      0.38218      0.00547      0.00010
     17     17     12      2      2.86722      0.03778      0.00068
     17     17     12      4      2.45349      0.03177      0.00057
     17     17     12      5      2.55550      0.02560      0.00046
     17     17     12      7    -19.23940     -0.17155     -0.00309
     17     17     12      8      4.57875      0.04015      0.00072
     17     17     12      9     28.51593      0.24352      0.00438
     17     17     12     10    -14.90323     -0.12125     -0.00218
     17     17     12     12     77.74000      0.57357      0.01032
     17     17     13      1      0.82203      0.01101      0.00020
     17     17     13      2      0.51457      0.00634      0.00011
     17     17     13      4      0.91682      0.01111      0.00020
     17     17     13      5     -5.34632     -0.05011     -0.00090
     17     17     13      7      3.40909      0.02844      0.00051
     17     17     13      8     -9.73778     -0.07988     -0.00144
     17     17     13      9      1.92117      0.01535      0.00028
     17     17     13     10     13.33042      0.10147      0.00183
     17     17     13     13      0.79427      0.00513      0.00009
     17     17     14      3     -0.51899     -0.00553     -0.00010
     17     17     14      6      3.62445      0.02637      0.00047
     17     17     14     11     13.70655      0.08493      0.00153
     17     17     14     14     36.64110      0.17922      0.00322
     17     17     15      1      0.97854      0.01074      0.00019
     17     17     15      5     -0.68707     -0.00528     -0.00009
     17     17     15      7     -5.28244     -0.03613     -0.00065
     17     17     15      8      1.77021      0.01190      0.00021
     17     17     15      9     13.81350      0.09048      0.00163
     17     17     15     10     16.51051      0.10303      0.00185
     17     17     15     12     20.41851      0.11555      0.00208
     17     17     15     13      1.43329      0.00759      0.00014
     17     17     15     15     15.61657      0.06779      0.00122
     17     17     16      3      0.70052      0.00676      0.00012
     17     17     16      6     -7.01156     -0.04619     -0.00083
     17     17     16     11    -25.02007     -0.14041     -0.00253
     17     17     16     14      7.60182      0.03367      0.00061
     17     17     16     16     48.47894      0.19449      0.00350
     17     17     17      1     -0.48908     -0.00455     -0.00008
     17     17     17      4      2.47028      0.02078      0.00037
     17     17     17      5      7.70545      0.05016      0.00090
     17     17     17      7    -16.68576     -0.09667     -0.00174
     17     17     17      8     12.86957      0.07332      0.00132
     17     17     17      9      7.62422      0.04230      0.00076
     17     17     17     10    -38.60574     -0.20408     -0.00367
     17     17     17     12     61.74542      0.29600      0.00532
     17     17     17     13     -6.03144     -0.02705     -0.00049
     17     17     17     15      2.75607      0.01013      0.00018
     17     17     17     17     66.86878      0.20828      0.00375
     18      3      1      1     -0.07520     -0.00237     -0.00004
     18      3      2      2    106.22990      2.83529      0.05100
     18      3      3      3   -120.53080     -3.17245     -0.05706
     18      4      4      3      3.00676      0.07750      0.00139
     18      5      5      3      0.50380      0.00777      0.00014
     18      6      1      1      0.22790      0.00490      0.00009
     18      6      2      2    558.01180     10.16870      0.18290
     18      6      3      3   -392.36971     -7.05122     -0.12683
     18      6      4      4   -173.95843     -3.06138     -0.05506
     18      6      5      5     -0.83798     -0.00883     -0.00016
     18      6      6      3    -87.43712     -1.07284     -0.01930
     18      6      6      6    -94.63950     -0.79284     -0.01426
     18      7      7      3     89.66551      1.09579      0.01971
     18      7      7      6     63.63808      0.53100      0.00955
     18      8      8      3      3.89209      0.04599      0.00083
     18      8      8      6      7.93849      0.06405      0.00115
     18      9      9      3      9.51421      0.10665      0.00192
     18      9      9      6    -11.92954     -0.09130     -0.00164
     18     10     10      3      9.11547      0.09275      0.00167
     18     10     10      6      8.41545      0.05846      0.00105
     18     11      1      1      7.05080      0.12916      0.00232
     18     11      2      2   -362.86046     -5.63279     -0.10131
     18     11      3      3    303.57541      4.64726      0.08359
     18     11      4      4    148.08379      2.21994      0.03993
     18     11      5      5     -8.95714     -0.08037     -0.00145
     18     11      6      6    163.11400      1.16403      0.02094
     18     11      7      7   -130.76735     -0.92947     -0.01672
     18     11      8      8     -6.74961     -0.04639     -0.00083
     18     11      9      9    -31.39395     -0.20468     -0.00368
     18     11     10     10      1.59194      0.00942      0.00017
     18     11     11      3    -57.27971     -0.50999     -0.00917
     18     11     11      6    -84.96298     -0.51649     -0.00929
     18     11     11     11    -12.87159     -0.06665     -0.00120
     18     12     12      3     21.88348      0.18311      0.00329
     18     12     12      6     47.90012      0.27366      0.00492
     18     12     12     11     53.05114      0.25819      0.00464
     18     13     13      3      0.37473      0.00274      0.00005
     18     13     13     11      4.86500      0.02073      0.00037
     18     14      1      1   -227.27590     -3.28620     -0.05911
     18     14      2      2   -162.07738     -1.98591     -0.03572
     18     14      3      3    133.38182      1.61168      0.02899
     18     14      4      4     65.35191      0.77329      0.01391
     18     14      5      5     19.61712      0.13893      0.00250
     18     14      6      6     94.35895      0.53151      0.00956
     18     14      7      7    -75.42933     -0.42318     -0.00761
     18     14      8      8     -2.37348     -0.01288     -0.00023
     18     14      9      9    -15.62410     -0.08040     -0.00145
     18     14     10     10     33.07274      0.15448      0.00278
     18     14     11     11    -24.45102     -0.09994     -0.00180
     18     14     12     12     48.96818      0.18811      0.00338
     18     14     13     13      4.21852      0.01419      0.00026
     18     14     14      3     -5.81579     -0.03226     -0.00058
     18     14     14      6     -9.36742     -0.03548     -0.00064
     18     14     14     11    -29.14129     -0.09402     -0.00169
     18     14     14     14    240.62790      0.61277      0.01102
     18     15     15      6     -1.11867     -0.00376     -0.00007
     18     15     15     11      4.82657      0.01382      0.00025
     18     15     15     14     10.76481      0.02433      0.00044
     18     16      1      1   -204.93558     -2.68365     -0.04827
     18     16      2      2    268.55259      2.98012      0.05360
     18     16      3      3    -74.58319     -0.81619     -0.01468
     18     16      4      4      3.96676      0.04251      0.00076
     18     16      5      5    -24.67920     -0.15829     -0.00285
     18     16      6      6   -153.82771     -0.78474     -0.01411
     18     16      7      7     57.90981      0.29425      0.00529
     18     16      8      8     -3.59387     -0.01766     -0.00032
     18     16      9      9     36.10580      0.16828      0.00303
     18     16     10     10     27.92581      0.11813      0.00212
     18     16     11     11     13.07171      0.04839      0.00087
     18     16     12     12    -79.84791     -0.27779     -0.00500
     18     16     13     13     -0.82798     -0.00252     -0.00005
     18     16     14     14    249.11830      0.57455      0.01033
     18     16     15     15      6.79499      0.01391      0.00025
     18     16     16      3     -2.68816     -0.01223     -0.00022
     18     16     16      6     -9.13400     -0.02838     -0.00051
     18     16     16     11     -9.65349     -0.02555     -0.00046
     18     16     16     14    193.61316      0.40441      0.00727
     18     16     16     16    177.46618      0.33572      0.00604
     18     17     17      3     -5.13842     -0.01815     -0.00033
     18     17     17      6     -4.65540     -0.01123     -0.00020
     18     17     17     11     44.55432      0.09154      0.00165
     18     17     17     14     30.91591      0.05014      0.00090
     18     17     17     16    -49.21870     -0.07229     -0.00130
     18     18      1      1    -47.90190     -0.22965     -0.00413
     18     18      2      1     -6.07925     -0.02683     -0.00048
     18     18      2      2  -2580.72828    -10.48453     -0.18858
     18     18      3      3  -3192.96766    -12.79226     -0.23009
     18     18      4      1      8.50816      0.03690      0.00066
     18     18      4      2    297.81587      1.18899      0.02139
     18     18      4      4  -3056.46052    -11.99154     -0.21568
     18     18      5      1     -0.91113     -0.00306     -0.00005
     18     18      5      2     36.92024      0.11403      0.00205
     18     18      5      4      4.29051      0.01302      0.00023
     18     18      5      5    -26.35540     -0.06189     -0.00111
     18     18      6      3     41.42004      0.11330      0.00204
     18     18      6      6   1104.03068      2.06194      0.03709
     18     18      7      1      0.93749      0.00280      0.00005
     18     18      7      2   -121.68999     -0.33453     -0.00602
     18     18      7      4     -1.29841     -0.00351     -0.00006
     18     18      7      5    -18.50619     -0.03868     -0.00070
     18     18      7      7   1309.08452      2.43516      0.04380
     18     18      8      1     -0.87958     -0.00258     -0.00005
     18     18      8      2     15.50287      0.04191      0.00075
     18     18      8      4    160.39191      0.42608      0.00766
     18     18      8      5     21.44098      0.04406      0.00079
     18     18      8      7    -26.13569     -0.04781     -0.00086
     18     18      8      8    321.65403      0.57857      0.01041
     18     18      9      1      2.74222      0.00784      0.00014
     18     18      9      2     20.01228      0.05269      0.00095
     18     18      9      4     83.07518      0.21494      0.00387
     18     18      9      5      7.05493      0.01412      0.00025
     18     18      9      7    342.85453      0.61082      0.01099
     18     18      9      8    199.89590      0.35020      0.00630
     18     18      9      9    229.95581      0.39237      0.00706
     18     18     10      1      2.12179      0.00578      0.00010
     18     18     10      2     -9.66652     -0.02425     -0.00044
     18     18     10      4     -8.45057     -0.02083     -0.00037
     18     18     10      5     -1.75244     -0.00334     -0.00006
     18     18     10      7   -352.91945     -0.59902     -0.01077
     18     18     10      9   -105.31429     -0.17120     -0.00308
     18     18     10     10    147.35722      0.22821      0.00410
     18     18     11      3     79.30166      0.18479      0.00332
     18     18     11      6   -625.88735     -0.99576     -0.01791
     18     18     11     11    883.69444      1.19763      0.02154
     18     18     12      1      0.87300      0.00216      0.00004
     18     18     12      2    -12.77114     -0.02905     -0.00052
     18     18     12      4     -3.98755     -0.00891     -0.00016
     18     18     12      5    -12.76250     -0.02207     -0.00040
     18     18     12      7    670.01578      1.03132      0.01855
     18     18     12      8   -115.02099     -0.17410     -0.00313
     18     18     12      9    199.28349      0.29378      0.00528
     18     18     12     10   -351.88980     -0.49422     -0.00889
     18     18     12     12    958.30364      1.22057      0.02195
     18     18     13      1      1.71059      0.00395      0.00007
     18     18     13      2     -6.09882     -0.01298     -0.00023
     18     18     13      5     -5.31915     -0.00861     -0.00015
     18     18     13      7     45.47878      0.06550      0.00118
     18     18     13      8     -6.31358     -0.00894     -0.00016
     18     18     13      9      8.30753      0.01146      0.00021
     18     18     13     10     -3.05138     -0.00401     -0.00007
     18     18     13     12      9.78052      0.01166      0.00021
     18     18     14      3      4.57331      0.00841      0.00015
     18     18     14      6   -218.85091     -0.27483     -0.00494
     18     18     14     11    537.86470      0.57537      0.01035
     18     18     14     14    415.51115      0.35084      0.00631
     18     18     15      2      3.03659      0.00530      0.00010
     18     18     15      4     -2.64676     -0.00454     -0.00008
     18     18     15      7      7.81556      0.00923      0.00017
     18     18     15      8    -15.26189     -0.01772     -0.00032
     18     18     15      9     10.94568      0.01238      0.00022
     18     18     15     10    -25.73068     -0.02772     -0.00050
     18     18     15     12    100.10762      0.09780      0.00176
     18     18     15     15     12.21578      0.00915      0.00016
     18     18     16      3     -4.61842     -0.00769     -0.00014
     18     18     16      6    193.61522      0.22020      0.00396
     18     18     16     11   -679.86394     -0.65866     -0.01185
     18     18     16     14   -391.26299     -0.29920     -0.00538
     18     18     16     16    679.21453      0.47040      0.00846
     18     18     17      1      1.62098      0.00260      0.00005
     18     18     17      2    -28.97630     -0.04283     -0.00077
     18     18     17      5      6.50707      0.00731      0.00013
     18     18     17      7    232.59065      0.23262      0.00418
     18     18     17      8    -89.61286     -0.08813     -0.00159
     18     18     17      9     87.87956      0.08418      0.00151
     18     18     17     10   -245.89141     -0.22439     -0.00404
     18     18     17     12    691.67379      0.57241      0.01030
     18     18     17     13      2.70382      0.00209      0.00004
     18     18     17     15     69.82196      0.04432      0.00080
     18     18     17     17    545.04660      0.29308      0.00527
     18     18     18      3    -17.26234     -0.01053     -0.00019
     18     18     18      6    768.60978      0.32003      0.00576
     18     18     18     11   -910.66699     -0.32300     -0.00581
     18     18     18     14   -413.29877     -0.11571     -0.00208
     18     18     18     16   -578.76333     -0.14674     -0.00264
     18     18     18     18  44084.30697      4.09211      0.07360

 Num. of 4th derivatives larger than  0.371D-04: 1578 over 5985

     ==================================================
                     Input for POLYMODE
     ==================================================

 ***************** cut here for POLYMODE input *****************
 18,  1, 18,601,***,  0,221,  5,  0
SCF-CI
          Input generated by DiNa
  1, 1,  0.551368D-07 /
  2, 2,  0.185016D-05 /
  3, 3,  0.306926D-05 /
  4, 4,  0.359301D-05 /
  5, 5,  0.456207D-05 /
  6, 6,  0.795426D-05 /
  7, 7,  0.103809D-04 /
  8, 8,  0.117531D-04 /
  9, 9,  0.153481D-04 /
 10,10,  0.186300D-04 /
 11,11,  0.207037D-04 /
 12,12,  0.221428D-04 /
 13,13,  0.223205D-04 /
 14,14,  0.352829D-04 /
 15,15,  0.984977D-04 /
 16,16,  0.102712D-03 /
 17,17,  0.105615D-03 /
 18,18,  0.147073D-03 /
  1, 1, 2, -.284838D-08 /
  2, 2, 2, -.121662D-08 /
  1, 2, 3, 0.622198D-09 /
  2, 3, 3, -.442797D-08 /
  1, 1, 4, -.315644D-09 /
  2, 2, 4, 0.594606D-08 /
  1, 3, 4, -.492819D-08 /
  3, 3, 4, -.302570D-08 /
  2, 4, 4, 0.461709D-08 /
  4, 4, 4, -.286100D-08 /
  1, 2, 5, 0.632568D-08 /
  2, 3, 5, 0.291271D-08 /
  1, 4, 5, 0.252152D-08 /
  3, 4, 5, -.102940D-07 /
  2, 5, 5, 0.547441D-09 /
  4, 5, 5, -.164103D-07 /
  1, 1, 6, -.565989D-09 /
  2, 2, 6, -.131028D-08 /
  1, 3, 6, 0.652209D-08 /
  3, 3, 6, 0.377162D-08 /
  2, 4, 6, 0.301155D-08 /
  4, 4, 6, -.158202D-07 /
  1, 5, 6, -.571268D-08 /
  3, 5, 6, -.336641D-07 /
  5, 5, 6, -.183961D-07 /
  2, 6, 6, -.583567D-08 /
  4, 6, 6, 0.135544D-07 /
  6, 6, 6, -.314359D-07 /
  1, 1, 7, -.304999D-08 /
  2, 2, 7, 0.213828D-08 /
  1, 3, 7, 0.351219D-07 /
  3, 3, 7, 0.163215D-08 /
  2, 4, 7, -.504186D-09 /
  4, 4, 7, 0.372936D-09 /
  1, 5, 7, -.160657D-07 /
  3, 5, 7, 0.122419D-07 /
  5, 5, 7, 0.774456D-08 /
  2, 6, 7, 0.101770D-07 /
  4, 6, 7, 0.177082D-07 /
  6, 6, 7, 0.238203D-08 /
  2, 7, 7, 0.238072D-08 /
  4, 7, 7, 0.657701D-08 /
  6, 7, 7, -.420513D-07 /
  7, 7, 7, 0.668678D-08 /
  1, 2, 8, 0.270399D-07 /
  2, 3, 8, 0.767387D-09 /
  1, 4, 8, 0.110936D-07 /
  3, 4, 8, 0.523629D-08 /
  4, 5, 8, 0.576346D-08 /
  1, 6, 8, -.876946D-08 /
  3, 6, 8, 0.143631D-07 /
  5, 6, 8, 0.435237D-08 /
  1, 7, 8, 0.692126D-08 /
  3, 7, 8, 0.530345D-08 /
  5, 7, 8, 0.878603D-08 /
  2, 8, 8, -.593766D-09 /
  4, 8, 8, 0.268717D-08 /
  6, 8, 8, -.104596D-07 /
  7, 8, 8, -.325740D-08 /
  1, 1, 9, -.353296D-08 /
  2, 2, 9, -.225033D-08 /
  1, 3, 9, -.199452D-07 /
  3, 3, 9, 0.260761D-08 /
  2, 4, 9, -.731813D-09 /
  4, 4, 9, -.197148D-08 /
  1, 5, 9, 0.122094D-08 /
  3, 5, 9, -.143997D-07 /
  5, 5, 9, -.498029D-07 /
  4, 6, 9, 0.284091D-07 /
  6, 6, 9, 0.389662D-08 /
  2, 7, 9, 0.274657D-08 /
  4, 7, 9, -.273265D-07 /
  6, 7, 9, -.688285D-07 /
  7, 7, 9, 0.251671D-07 /
  1, 8, 9, 0.581192D-08 /
  3, 8, 9, 0.168698D-07 /
  5, 8, 9, 0.395142D-07 /
  8, 8, 9, -.137234D-07 /
  2, 9, 9, 0.503057D-08 /
  4, 9, 9, -.300434D-07 /
  6, 9, 9, -.892008D-07 /
  7, 9, 9, 0.375215D-07 /
  9, 9, 9, 0.247780D-09 /
  1, 1,10, 0.223217D-07 /
  2, 2,10, -.367802D-08 /
  1, 3,10, -.994343D-08 /
  3, 3,10, 0.560150D-08 /
  2, 4,10, -.305029D-08 /
  4, 4,10, 0.783963D-09 /
  1, 5,10, -.579309D-08 /
  3, 5,10, -.431372D-07 /
  5, 5,10, -.606647D-07 /
  2, 6,10, -.116961D-07 /
  4, 6,10, -.238975D-07 /
  6, 6,10, -.577487D-08 /
  2, 7,10, -.176322D-08 /
  4, 7,10, -.178258D-08 /
  6, 7,10, 0.550923D-07 /
  7, 7,10, -.911579D-08 /
  1, 8,10, -.394896D-08 /
  3, 8,10, 0.883325D-08 /
  5, 8,10, 0.446308D-07 /
  8, 8,10, 0.356060D-07 /
  2, 9,10, -.155605D-08 /
  4, 9,10, -.172060D-07 /
  6, 9,10, 0.616706D-07 /
  7, 9,10, -.114077D-06 /
  9, 9,10, -.879051D-07 /
  2,10,10, 0.109105D-07 /
  4,10,10, -.105995D-07 /
  6,10,10, -.681920D-07 /
  7,10,10, 0.397199D-07 /
  9,10,10, -.108965D-07 /
 10,10,10, -.393770D-07 /
  1, 1,11, 0.395484D-07 /
  1, 3,11, -.146785D-07 /
  3, 3,11, -.381912D-08 /
  2, 4,11, 0.433214D-08 /
  4, 4,11, -.423780D-08 /
  1, 5,11, 0.120152D-07 /
  3, 5,11, 0.324776D-07 /
  5, 5,11, 0.365069D-07 /
  2, 6,11, 0.629502D-08 /
  4, 6,11, 0.442925D-07 /
  6, 6,11, -.381117D-07 /
  2, 7,11, 0.774474D-08 /
  4, 7,11, 0.932237D-08 /
  6, 7,11, -.660422D-07 /
  7, 7,11, 0.427210D-07 /
  1, 8,11, 0.104050D-07 /
  3, 8,11, -.200990D-07 /
  5, 8,11, -.892422D-08 /
  8, 8,11, 0.370786D-07 /
  2, 9,11, -.397449D-08 /
  4, 9,11, 0.105885D-07 /
  6, 9,11, -.929320D-07 /
  7, 9,11, 0.328148D-07 /
  9, 9,11, 0.654107D-07 /
  2,10,11, -.128768D-07 /
  4,10,11, 0.109576D-07 /
  6,10,11, 0.114642D-06 /
  7,10,11, -.289542D-07 /
  9,10,11, -.184211D-07 /
 10,10,11, 0.498905D-07 /
  2,11,11, 0.153042D-08 /
  4,11,11, 0.121585D-07 /
  6,11,11, -.944124D-07 /
  7,11,11, -.981106D-08 /
  9,11,11, 0.102260D-07 /
 10,11,11, -.848229D-07 /
 11,11,11, -.269137D-07 /
  1, 1,12, -.145713D-07 /
  2, 2,12, -.138602D-07 /
  1, 3,12, -.309110D-07 /
  3, 3,12, 0.163243D-07 /
  2, 4,12, -.699360D-08 /
  4, 4,12, -.228891D-08 /
  1, 5,12, 0.266420D-07 /
  3, 5,12, -.148018D-07 /
  5, 5,12, 0.169050D-07 /
  2, 6,12, 0.202042D-08 /
  4, 6,12, 0.760203D-08 /
  6, 6,12, 0.270365D-09 /
  2, 7,12, -.398478D-07 /
  4, 7,12, -.164749D-07 /
  6, 7,12, 0.844251D-08 /
  7, 7,12, -.361811D-07 /
  1, 8,12, -.291929D-08 /
  3, 8,12, -.530830D-07 /
  5, 8,12, 0.361295D-07 /
  8, 8,12, 0.472144D-07 /
  2, 9,12, 0.123989D-07 /
  4, 9,12, 0.369118D-08 /
  6, 9,12, -.340818D-07 /
  7, 9,12, 0.635454D-07 /
  9, 9,12, -.109486D-08 /
  2,10,12, -.246098D-08 /
  4,10,12, 0.222212D-08 /
  6,10,12, 0.351609D-07 /
  7,10,12, -.343375D-07 /
  9,10,12, 0.240074D-07 /
 10,10,12, 0.869258D-08 /
  2,11,12, 0.138435D-07 /
  4,11,12, -.175613D-08 /
  6,11,12, -.294177D-07 /
  7,11,12, 0.505401D-07 /
  9,11,12, -.198587D-07 /
 11,11,12, 0.771012D-08 /
  2,12,12, 0.126700D-08 /
  4,12,12, -.464281D-09 /
  6,12,12, -.171737D-08 /
  7,12,12, -.207332D-08 /
  9,12,12, 0.111005D-07 /
 10,12,12, -.223997D-07 /
 11,12,12, -.963750D-08 /
 12,12,12, -.199649D-07 /
  1, 2,13, 0.395255D-07 /
  2, 3,13, 0.268150D-07 /
  1, 4,13, 0.608509D-08 /
  3, 4,13, 0.486177D-08 /
  2, 5,13, -.215717D-07 /
  4, 5,13, -.177492D-08 /
  3, 6,13, 0.307045D-08 /
  5, 6,13, -.210952D-08 /
  1, 7,13, 0.247820D-07 /
  3, 7,13, 0.518040D-07 /
  5, 7,13, -.375223D-07 /
  2, 8,13, -.370771D-07 /
  4, 8,13, -.416356D-08 /
  6, 8,13, -.204978D-07 /
  7, 8,13, -.110015D-06 /
  1, 9,13, 0.665643D-08 /
  3, 9,13, -.141791D-07 /
  5, 9,13, 0.231615D-07 /
  8, 9,13, 0.362341D-07 /
  1,10,13, -.541297D-08 /
  3,10,13, 0.158029D-07 /
  5,10,13, -.709458D-08 /
  8,10,13, -.186862D-07 /
  1,11,13, 0.178025D-07 /
  3,11,13, -.979302D-09 /
  5,11,13, -.948733D-08 /
  8,11,13, -.236837D-08 /
  1,12,13, -.233850D-08 /
  3,12,13, -.159161D-08 /
  5,12,13, 0.489195D-09 /
  8,12,13, -.313856D-07 /
  4,13,13, 0.152020D-08 /
  6,13,13, -.778642D-09 /
  7,13,13, 0.179972D-07 /
  9,13,13, -.933594D-08 /
 11,13,13, -.168305D-07 /
 12,13,13, 0.871020D-07 /
  1, 1,14, 0.212935D-08 /
  2, 2,14, -.144309D-08 /
  1, 3,14, -.445908D-08 /
  3, 3,14, -.420917D-07 /
  2, 4,14, -.222741D-07 /
  4, 4,14, -.189068D-07 /
  1, 5,14, 0.106091D-07 /
  3, 5,14, 0.510161D-07 /
  5, 5,14, -.104023D-07 /
  2, 6,14, -.203723D-07 /
  4, 6,14, 0.178648D-07 /
  6, 6,14, -.447506D-07 /
  2, 7,14, -.279619D-08 /
  4, 7,14, -.265904D-08 /
  6, 7,14, -.149158D-08 /
  7, 7,14, -.187385D-07 /
  1, 8,14, -.277565D-07 /
  3, 8,14, -.458512D-07 /
  5, 8,14, 0.115023D-07 /
  8, 8,14, -.246019D-07 /
  2, 9,14, -.171996D-07 /
  4, 9,14, 0.754425D-08 /
  6, 9,14, -.720524D-09 /
  7, 9,14, -.891145D-07 /
  9, 9,14, -.517838D-08 /
  2,10,14, 0.138277D-07 /
  4,10,14, 0.431253D-07 /
  6,10,14, 0.140102D-07 /
  7,10,14, 0.902283D-07 /
  9,10,14, 0.185520D-06 /
 10,10,14, -.175827D-07 /
  2,11,14, -.937333D-08 /
  4,11,14, -.138202D-07 /
  6,11,14, -.532355D-07 /
  7,11,14, -.476532D-07 /
  9,11,14, -.180808D-06 /
 10,11,14, 0.444747D-07 /
 11,11,14, -.655277D-07 /
  2,12,14, -.176032D-08 /
  4,12,14, -.794114D-08 /
  6,12,14, -.894128D-08 /
  7,12,14, -.170922D-07 /
  9,12,14, -.121534D-07 /
 10,12,14, 0.371519D-07 /
 11,12,14, -.323915D-07 /
 12,12,14, 0.130118D-07 /
  1,13,14, -.111412D-07 /
  3,13,14, -.376003D-08 /
  5,13,14, -.555050D-08 /
  8,13,14, -.382076D-07 /
 13,13,14, -.342101D-08 /
  2,14,14, 0.563438D-09 /
  4,14,14, 0.781156D-08 /
  6,14,14, -.124072D-06 /
  7,14,14, -.690560D-07 /
  9,14,14, 0.123799D-06 /
 10,14,14, 0.118493D-06 /
 11,14,14, -.137637D-06 /
 12,14,14, 0.610106D-07 /
 14,14,14, 0.302455D-06 /
  1, 1,15, -.592045D-06 /
  2, 2,15, -.890621D-07 /
  1, 3,15, 0.404949D-07 /
  3, 3,15, -.139543D-06 /
  2, 4,15, -.331498D-07 /
  4, 4,15, -.470554D-08 /
  1, 5,15, 0.448798D-07 /
  3, 5,15, 0.226318D-06 /
  5, 5,15, -.821577D-07 /
  2, 6,15, 0.274781D-08 /
  4, 6,15, 0.874953D-08 /
  6, 6,15, -.113093D-07 /
  2, 7,15, -.342045D-06 /
  4, 7,15, -.642792D-07 /
  6, 7,15, 0.991651D-08 /
  7, 7,15, -.330267D-06 /
  1, 8,15, 0.114284D-06 /
  3, 8,15, 0.401773D-06 /
  5, 8,15, -.322761D-06 /
  8, 8,15, -.293826D-06 /
  2, 9,15, 0.117916D-06 /
  4, 9,15, 0.259483D-07 /
  6, 9,15, -.118148D-07 /
  7, 9,15, 0.239878D-06 /
  9, 9,15, -.448440D-07 /
  2,10,15, -.378699D-08 /
  4,10,15, -.161681D-08 /
  6,10,15, 0.425898D-08 /
  7,10,15, -.282286D-07 /
  9,10,15, 0.494137D-07 /
 10,10,15, -.135806D-06 /
  2,11,15, 0.909643D-07 /
  4,11,15, 0.286274D-07 /
  6,11,15, -.228975D-07 /
  7,11,15, 0.170392D-06 /
  9,11,15, -.177538D-07 /
 10,11,15, -.378805D-06 /
 11,11,15, -.330522D-06 /
  2,12,15, 0.139433D-07 /
  4,12,15, 0.958197D-08 /
  6,12,15, -.192081D-07 /
  7,12,15, -.115127D-06 /
  9,12,15, 0.893087D-07 /
 10,12,15, -.997413D-07 /
 11,12,15, 0.238253D-07 /
 12,12,15, -.250460D-06 /
  1,13,15, -.129039D-06 /
  3,13,15, 0.974577D-07 /
  5,13,15, -.514636D-07 /
  8,13,15, 0.179999D-07 /
 13,13,15, -.224119D-06 /
  2,14,15, -.166670D-07 /
  4,14,15, -.735988D-09 /
  6,14,15, -.408194D-08 /
  7,14,15, -.683675D-08 /
  9,14,15, 0.188478D-08 /
 10,14,15, -.320016D-07 /
 11,14,15, -.601534D-07 /
 12,14,15, 0.959252D-08 /
 14,14,15, 0.968295D-09 /
  4,15,15, 0.280072D-08 /
  6,15,15, -.101717D-07 /
  7,15,15, 0.157965D-07 /
  9,15,15, -.134611D-07 /
 10,15,15, -.176064D-07 /
 11,15,15, -.937542D-07 /
 12,15,15, -.132442D-08 /
 14,15,15, 0.135920D-08 /
 15,15,15, 0.136807D-05 /
  1, 2,16, 0.162378D-06 /
  2, 3,16, -.144550D-06 /
  1, 4,16, 0.211416D-07 /
  3, 4,16, -.257977D-07 /
  2, 5,16, 0.981908D-07 /
  4, 5,16, 0.197924D-07 /
  1, 6,16, 0.148030D-07 /
  3, 6,16, -.114453D-07 /
  5, 6,16, 0.289364D-08 /
  1, 7,16, 0.466257D-06 /
  3, 7,16, -.254437D-06 /
  5, 7,16, 0.153585D-06 /
  2, 8,16, 0.155994D-06 /
  4, 8,16, 0.417670D-07 /
  6, 8,16, -.265901D-07 /
  7, 8,16, 0.181692D-06 /
  1, 9,16, -.241408D-06 /
  3, 9,16, 0.374447D-07 /
  5, 9,16, -.133794D-07 /
  8, 9,16, 0.133040D-07 /
  1,10,16, 0.233423D-06 /
  3,10,16, 0.254171D-06 /
  5,10,16, -.212729D-06 /
  8,10,16, -.396014D-06 /
  1,11,16, -.151203D-07 /
  3,11,16, 0.393596D-06 /
  5,11,16, -.304988D-06 /
  8,11,16, -.543463D-06 /
  1,12,16, 0.910278D-06 /
  3,12,16, 0.132480D-06 /
  5,12,16, -.169472D-06 /
  8,12,16, -.395954D-06 /
  2,13,16, 0.208855D-06 /
  4,13,16, 0.417756D-07 /
  6,13,16, -.155596D-07 /
  7,13,16, 0.450456D-06 /
  9,13,16, -.176127D-06 /
 10,13,16, -.424774D-07 /
 11,13,16, -.290302D-06 /
 12,13,16, 0.253726D-06 /
  1,14,16, -.267196D-07 /
  3,14,16, 0.100912D-08 /
  5,14,16, -.247622D-08 /
  8,14,16, -.381996D-07 /
 13,14,16, -.150855D-07 /
  1,15,16, 0.364596D-07 /
  3,15,16, 0.466528D-07 /
  5,15,16, -.587984D-07 /
  8,15,16, -.208714D-06 /
 13,15,16, 0.297255D-07 /
  2,16,16, 0.550124D-08 /
  4,16,16, 0.118473D-08 /
  6,16,16, -.675864D-08 /
  7,16,16, 0.675803D-07 /
  9,16,16, -.700073D-07 /
 10,16,16, 0.149360D-06 /
 11,16,16, 0.646620D-07 /
 12,16,16, 0.221464D-06 /
 14,16,16, 0.218036D-07 /
 15,16,16, 0.477045D-05 /
  1, 1,17, -.380264D-07 /
  2, 2,17, -.670962D-07 /
  1, 3,17, 0.222722D-06 /
  3, 3,17, 0.238019D-07 /
  2, 4,17, -.355370D-07 /
  4, 4,17, -.501192D-08 /
  1, 5,17, -.194013D-06 /
  3, 5,17, -.440855D-07 /
  5, 5,17, 0.186967D-07 /
  2, 6,17, 0.340522D-07 /
  4, 6,17, 0.100314D-07 /
  6, 6,17, -.637727D-08 /
  2, 7,17, -.223534D-06 /
  4, 7,17, -.481577D-07 /
  6, 7,17, 0.341238D-07 /
  7, 7,17, -.163166D-06 /
  1, 8,17, -.511239D-06 /
  3, 8,17, -.278545D-07 /
  5, 8,17, 0.365658D-07 /
  8, 8,17, -.196317D-07 /
  2, 9,17, 0.106840D-06 /
  4, 9,17, 0.211108D-07 /
  6, 9,17, -.985714D-08 /
  7, 9,17, 0.135015D-06 /
  9, 9,17, -.209676D-07 /
  2,10,17, -.239730D-06 /
  4,10,17, -.468322D-07 /
  6,10,17, 0.170992D-07 /
  7,10,17, -.381632D-06 /
  9,10,17, 0.129222D-06 /
 10,10,17, -.481316D-07 /
  2,11,17, -.321093D-06 /
  4,11,17, -.666868D-07 /
  6,11,17, 0.213644D-07 /
  7,11,17, -.608633D-06 /
  9,11,17, 0.220204D-06 /
 10,11,17, -.110493D-06 /
 11,11,17, -.969814D-08 /
  2,12,17, 0.236762D-06 /
  4,12,17, 0.406006D-07 /
  6,12,17, 0.190804D-08 /
  7,12,17, 0.480029D-06 /
  9,12,17, -.203295D-06 /
 10,12,17, 0.242128D-06 /
 11,12,17, 0.199365D-06 /
 12,12,17, 0.665172D-07 /
  1,13,17, 0.842152D-06 /
  3,13,17, -.327189D-06 /
  5,13,17, 0.222247D-06 /
  8,13,17, 0.505225D-06 /
 13,13,17, -.200398D-06 /
  2,14,17, -.452933D-07 /
  4,14,17, -.727667D-09 /
  6,14,17, -.154653D-07 /
  7,14,17, -.895251D-07 /
  9,14,17, 0.289089D-07 /
 10,14,17, -.356600D-07 /
 11,14,17, -.630457D-07 /
 12,14,17, 0.479718D-07 /
 14,14,17, 0.126341D-08 /
  2,15,17, -.106956D-07 /
  4,15,17, 0.195511D-08 /
  6,15,17, -.156235D-07 /
  7,15,17, -.666921D-07 /
  9,15,17, 0.441051D-07 /
 10,15,17, -.722370D-07 /
 11,15,17, -.488731D-07 /
 12,15,17, 0.118518D-06 /
 14,15,17, -.101038D-06 /
 15,15,17, -.673280D-06 /
  1,16,17, -.271528D-07 /
  3,16,17, -.291568D-07 /
  5,16,17, 0.398980D-07 /
  8,16,17, 0.185250D-06 /
 13,16,17, -.426914D-06 /
 16,16,17, -.240593D-05 /
  2,17,17, -.115283D-07 /
  4,17,17, 0.490598D-08 /
  6,17,17, -.357217D-07 /
  7,17,17, -.895804D-07 /
  9,17,17, 0.374053D-07 /
 10,17,17, 0.304992D-07 /
 11,17,17, 0.107970D-06 /
 12,17,17, -.192661D-06 /
 14,17,17, -.497660D-07 /
 15,17,17, 0.343555D-05 /
 16,17,17, -.410112D-09 /
 17,17,17, 0.176826D-05 /
  1, 1,18, 0.626002D-08 /
  2, 2,18, 0.490506D-07 /
  1, 3,18, 0.123398D-06 /
  3, 3,18, 0.730785D-06 /
  2, 4,18, -.148450D-06 /
  4, 4,18, 0.108849D-06 /
  1, 5,18, 0.149471D-06 /
  3, 5,18, 0.176407D-05 /
  5, 5,18, 0.107089D-05 /
  2, 6,18, -.105952D-06 /
  4, 6,18, 0.150003D-06 /
  6, 6,18, 0.512913D-07 /
  2, 7,18, -.130028D-06 /
  4, 7,18, 0.203915D-06 /
  6, 7,18, 0.144482D-06 /
  7, 7,18, 0.100105D-06 /
  1, 8,18, -.681163D-08 /
  3, 8,18, -.670841D-07 /
  5, 8,18, -.683239D-07 /
  8, 8,18, 0.205968D-08 /
  2, 9,18, -.399452D-06 /
  4, 9,18, 0.577494D-06 /
  6, 9,18, 0.387184D-06 /
  7, 9,18, 0.583249D-06 /
  9, 9,18, 0.816764D-06 /
  2,10,18, -.238746D-06 /
  4,10,18, 0.335835D-06 /
  6,10,18, 0.201318D-06 /
  7,10,18, 0.343063D-06 /
  9,10,18, 0.910549D-06 /
 10,10,18, 0.222462D-06 /
  2,11,18, 0.108335D-06 /
  4,11,18, -.154860D-06 /
  6,11,18, -.867561D-07 /
  7,11,18, -.168387D-06 /
  9,11,18, -.416314D-06 /
 10,11,18, -.181289D-06 /
 11,11,18, 0.350759D-07 /
  2,12,18, 0.212104D-07 /
  4,12,18, -.295802D-07 /
  6,12,18, -.133082D-07 /
  7,12,18, -.263712D-07 /
  9,12,18, -.731319D-07 /
 10,12,18, -.274795D-07 /
 11,12,18, 0.118654D-07 /
 12,12,18, 0.313352D-08 /
  1,13,18, 0.749543D-08 /
  3,13,18, 0.126644D-07 /
  5,13,18, 0.231251D-07 /
  8,13,18, 0.163475D-08 /
 13,13,18, 0.121644D-08 /
  2,14,18, 0.795732D-07 /
  4,14,18, -.118368D-06 /
  6,14,18, -.655196D-07 /
  7,14,18, -.131116D-06 /
  9,14,18, -.328241D-06 /
 10,14,18, -.163496D-06 /
 11,14,18, 0.701467D-07 /
 12,14,18, 0.128067D-07 /
 14,14,18, 0.286464D-07 /
  6,15,18, 0.151023D-08 /
  7,15,18, -.317485D-08 /
  9,15,18, -.164712D-08 /
 10,15,18, 0.256055D-08 /
 11,15,18, -.363829D-08 /
 12,15,18, 0.159617D-08 /
 15,15,18, -.135270D-07 /
  1,16,18, 0.182842D-08 /
  3,16,18, 0.116528D-08 /
  5,16,18, 0.957312D-09 /
 13,16,18, -.258805D-08 /
 16,16,18, -.179426D-07 /
  2,17,18, -.138858D-08 /
  6,17,18, -.823871D-09 /
  9,17,18, 0.793799D-09 /
 10,17,18, -.296216D-08 /
 14,17,18, -.157685D-08 /
 15,17,18, 0.118578D-07 /
 17,17,18, -.567741D-08 /
  2,18,18, -.211214D-07 /
  4,18,18, 0.428292D-07 /
  6,18,18, 0.369936D-07 /
  7,18,18, 0.186008D-07 /
  9,18,18, 0.229969D-06 /
 10,18,18, 0.272483D-06 /
 11,18,18, -.175464D-06 /
 12,18,18, -.386964D-07 /
 14,18,18, -.888857D-07 /
 15,18,18, -.391031D-07 /
 17,18,18, 0.212995D-07 /
 18,18,18, -.430393D-05 /
  1, 1, 1, 1, 0.922911D-09 /
  1, 1, 2, 2, 0.396593D-09 /
  2, 2, 2, 2, 0.469750D-10 /
  1, 1, 3, 3, 0.636547D-09 /
  2, 2, 3, 3, 0.263185D-09 /
  1, 3, 3, 3, 0.302863D-09 /
  3, 3, 3, 3, 0.993108D-09 /
  1, 1, 4, 4, 0.123867D-10 /
  2, 2, 4, 4, 0.917287D-10 /
  1, 3, 4, 4, 0.376402D-10 /
  3, 3, 4, 4, 0.323022D-09 /
  2, 4, 4, 4, -.393058D-10 /
  4, 4, 4, 4, 0.350483D-10 /
  1, 1, 5, 5, 0.474756D-09 /
  2, 2, 5, 5, 0.242516D-09 /
  1, 3, 5, 5, 0.155497D-08 /
  3, 3, 5, 5, 0.827269D-08 /
  2, 4, 5, 5, -.533211D-09 /
  4, 4, 5, 5, 0.471668D-09 /
  1, 5, 5, 5, 0.552806D-09 /
  3, 5, 5, 5, 0.636835D-08 /
  5, 5, 5, 5, 0.201590D-08 /
  2, 2, 6, 6, 0.694155D-11 /
  1, 3, 6, 6, -.682427D-11 /
  3, 3, 6, 6, 0.101270D-09 /
  2, 4, 6, 6, -.670464D-10 /
  4, 4, 6, 6, 0.131282D-09 /
  1, 5, 6, 6, 0.383908D-10 /
  3, 5, 6, 6, 0.444454D-09 /
  5, 5, 6, 6, 0.214346D-09 /
  2, 6, 6, 6, 0.167845D-10 /
  4, 6, 6, 6, -.472855D-10 /
  6, 6, 6, 6, 0.884782D-10 /
  1, 1, 7, 7, 0.165169D-08 /
  2, 2, 7, 7, 0.776163D-09 /
  1, 3, 7, 7, -.751824D-09 /
  3, 3, 7, 7, 0.621395D-09 /
  2, 4, 7, 7, 0.190871D-09 /
  4, 4, 7, 7, 0.175478D-09 /
  1, 5, 7, 7, 0.509095D-09 /
  3, 5, 7, 7, 0.135229D-09 /
  5, 5, 7, 7, 0.583149D-09 /
  2, 6, 7, 7, -.218715D-09 /
  4, 6, 7, 7, 0.861452D-10 /
  6, 6, 7, 7, 0.229982D-09 /
  2, 7, 7, 7, 0.845960D-09 /
  4, 7, 7, 7, 0.249729D-09 /
  6, 7, 7, 7, -.100639D-09 /
  7, 7, 7, 7, 0.438685D-09 /
  1, 1, 8, 8, 0.162063D-08 /
  2, 2, 8, 8, 0.211032D-09 /
  1, 3, 8, 8, 0.130961D-09 /
  3, 3, 8, 8, 0.794158D-09 /
  2, 4, 8, 8, 0.804391D-10 /
  4, 4, 8, 8, 0.189306D-10 /
  1, 5, 8, 8, -.270483D-09 /
  3, 5, 8, 8, -.115586D-08 /
  5, 5, 8, 8, 0.497801D-09 /
  2, 6, 8, 8, 0.998166D-11 /
  4, 6, 8, 8, 0.910912D-11 /
  6, 6, 8, 8, -.734908D-10 /
  2, 7, 8, 8, 0.790372D-09 /
  4, 7, 8, 8, 0.175256D-09 /
  6, 7, 8, 8, -.740638D-10 /
  7, 7, 8, 8, 0.679984D-09 /
  1, 8, 8, 8, -.601314D-10 /
  3, 8, 8, 8, -.705861D-09 /
  5, 8, 8, 8, 0.547938D-09 /
  8, 8, 8, 8, 0.255804D-09 /
  1, 1, 9, 9, 0.308820D-09 /
  2, 2, 9, 9, 0.492339D-09 /
  1, 3, 9, 9, 0.319718D-09 /
  3, 3, 9, 9, 0.195716D-08 /
  2, 4, 9, 9, -.119083D-08 /
  4, 4, 9, 9, 0.957206D-09 /
  1, 5, 9, 9, 0.418084D-09 /
  3, 5, 9, 9, 0.508601D-08 /
  5, 5, 9, 9, 0.293373D-08 /
  2, 6, 9, 9, -.907762D-09 /
  4, 6, 9, 9, 0.133542D-08 /
  6, 6, 9, 9, 0.755618D-09 /
  2, 7, 9, 9, -.920038D-09 /
  4, 7, 9, 9, 0.186658D-08 /
  6, 7, 9, 9, 0.863763D-09 /
  7, 7, 9, 9, 0.151788D-08 /
  1, 8, 9, 9, 0.254957D-10 /
  3, 8, 9, 9, -.499594D-09 /
  5, 8, 9, 9, 0.143166D-10 /
  8, 8, 9, 9, -.280763D-10 /
  2, 9, 9, 9, -.132451D-08 /
  4, 9, 9, 9, 0.166791D-08 /
  6, 9, 9, 9, 0.954765D-09 /
  7, 9, 9, 9, 0.178714D-08 /
  9, 9, 9, 9, 0.117565D-08 /
  1, 1,10,10, 0.530954D-09 /
  2, 2,10,10, 0.363278D-09 /
  1, 3,10,10, 0.455426D-09 /
  3, 3,10,10, 0.705498D-09 /
  2, 4,10,10, -.181316D-09 /
  4, 4,10,10, 0.298772D-09 /
  1, 5,10,10, -.217605D-09 /
  3, 5,10,10, 0.957782D-09 /
  5, 5,10,10, 0.101131D-08 /
  2, 6,10,10, -.309150D-09 /
  4, 6,10,10, 0.301691D-09 /
  6, 6,10,10, 0.278947D-09 /
  2, 7,10,10, 0.519853D-09 /
  4, 7,10,10, 0.694839D-09 /
  6, 7,10,10, -.573381D-10 /
  7, 7,10,10, 0.127097D-08 /
  1, 8,10,10, -.553945D-09 /
  3, 8,10,10, -.121491D-08 /
  5, 8,10,10, 0.849518D-09 /
  8, 8,10,10, 0.747138D-09 /
  2, 9,10,10, -.142251D-08 /
  4, 9,10,10, 0.136509D-08 /
  6, 9,10,10, 0.463595D-09 /
  7, 9,10,10, 0.146059D-08 /
  9, 9,10,10, 0.254032D-08 /
  2,10,10,10, -.113302D-09 /
  4,10,10,10, 0.314522D-09 /
  6,10,10,10, 0.245124D-09 /
  7,10,10,10, 0.352532D-09 /
  9,10,10,10, 0.394930D-09 /
 10,10,10,10, 0.129476D-09 /
  1, 1,11,11, 0.782924D-09 /
  2, 2,11,11, 0.476901D-09 /
  1, 3,11,11, -.477882D-10 /
  3, 3,11,11, 0.691380D-09 /
  2, 4,11,11, 0.221777D-09 /
  4, 4,11,11, 0.971596D-10 /
  1, 5,11,11, -.348479D-10 /
  3, 5,11,11, -.890337D-09 /
  5, 5,11,11, 0.523315D-09 /
  2, 6,11,11, -.149349D-09 /
  4, 6,11,11, -.196793D-09 /
  6, 6,11,11, 0.599114D-09 /
  2, 7,11,11, 0.203399D-08 /
  4, 7,11,11, 0.336822D-09 /
  6, 7,11,11, 0.900651D-10 /
  7, 7,11,11, 0.206922D-08 /
  1, 8,11,11, -.125550D-09 /
  3, 8,11,11, -.241930D-08 /
  5, 8,11,11, 0.182257D-08 /
  8, 8,11,11, 0.132724D-08 /
  2, 9,11,11, -.100105D-08 /
  4, 9,11,11, -.496767D-10 /
  6, 9,11,11, 0.881471D-10 /
  7, 9,11,11, -.461315D-09 /
  9, 9,11,11, 0.860014D-09 /
  4,10,11,11, 0.272017D-09 /
  6,10,11,11, -.352446D-10 /
  7,10,11,11, -.228404D-09 /
  9,10,11,11, -.412136D-09 /
 10,10,11,11, 0.734123D-09 /
  2,11,11,11, -.235133D-09 /
  4,11,11,11, -.161953D-09 /
  6,11,11,11, 0.146061D-09 /
  7,11,11,11, -.163282D-09 /
  9,11,11,11, 0.113116D-09 /
 10,11,11,11, 0.586306D-09 /
 11,11,11,11, 0.291572D-09 /
  1, 1,12,12, 0.329526D-08 /
  2, 2,12,12, 0.233619D-09 /
  1, 3,12,12, 0.796348D-09 /
  3, 3,12,12, 0.136946D-09 /
  2, 4,12,12, 0.808918D-10 /
  4, 4,12,12, 0.122715D-10 /
  1, 5,12,12, -.114531D-08 /
  3, 5,12,12, -.313277D-09 /
  5, 5,12,12, 0.106146D-09 /
  2, 6,12,12, 0.359809D-10 /
  4, 6,12,12, 0.745884D-11 /
  6, 6,12,12, 0.834823D-11 /
  2, 7,12,12, 0.936542D-09 /
  4, 7,12,12, 0.198036D-09 /
  6, 7,12,12, -.512600D-10 /
  7, 7,12,12, 0.101679D-08 /
  1, 8,12,12, -.251553D-08 /
  3, 8,12,12, -.567151D-09 /
  5, 8,12,12, 0.603867D-09 /
  8, 8,12,12, 0.645711D-09 /
  2, 9,12,12, -.345093D-09 /
  4, 9,12,12, -.756401D-10 /
  6, 9,12,12, -.322273D-10 /
  7, 9,12,12, -.824986D-09 /
  9, 9,12,12, 0.222424D-09 /
  2,10,12,12, 0.160858D-09 /
  4,10,12,12, 0.311392D-10 /
  6,10,12,12, 0.317686D-10 /
  7,10,12,12, 0.534516D-09 /
  9,10,12,12, -.363641D-09 /
 10,10,12,12, 0.341145D-09 /
  2,11,12,12, -.255859D-10 /
  4,11,12,12, -.707955D-10 /
  6,11,12,12, 0.634649D-11 /
  7,11,12,12, -.563461D-10 /
  9,11,12,12, -.105553D-09 /
 10,11,12,12, 0.488778D-09 /
 11,11,12,12, 0.336004D-09 /
  2,12,12,12, 0.887219D-10 /
  4,12,12,12, 0.240212D-10 /
  6,12,12,12, -.571322D-10 /
  7,12,12,12, 0.239324D-09 /
  9,12,12,12, -.197388D-09 /
 10,12,12,12, 0.171352D-09 /
 11,12,12,12, -.265452D-10 /
 12,12,12,12, 0.466174D-10 /
  1, 1,13,13, 0.279023D-08 /
  2, 2,13,13, 0.246645D-09 /
  1, 3,13,13, -.212384D-08 /
  3, 3,13,13, 0.486917D-09 /
  2, 4,13,13, 0.971526D-10 /
  4, 4,13,13, 0.189379D-10 /
  1, 5,13,13, 0.143847D-08 /
  3, 5,13,13, -.664113D-09 /
  5, 5,13,13, 0.215478D-09 /
  2, 6,13,13, -.510616D-10 /
  4, 6,13,13, -.357808D-10 /
  6, 6,13,13, 0.276627D-10 /
  2, 7,13,13, 0.940653D-09 /
  4, 7,13,13, 0.186800D-09 /
  6, 7,13,13, -.736348D-10 /
  7, 7,13,13, 0.966138D-09 /
  1, 8,13,13, 0.315034D-08 /
  3, 8,13,13, -.141100D-08 /
  5, 8,13,13, 0.961675D-09 /
  8, 8,13,13, 0.111124D-08 /
  2, 9,13,13, -.412632D-09 /
  4, 9,13,13, -.701818D-10 /
  6, 9,13,13, -.169421D-10 /
  7, 9,13,13, -.792368D-09 /
  9, 9,13,13, 0.130874D-09 /
  2,10,13,13, 0.289989D-09 /
  4,10,13,13, 0.407497D-10 /
  6,10,13,13, 0.270161D-10 /
  7,10,13,13, 0.388936D-09 /
  9,10,13,13, -.973208D-10 /
 10,10,13,13, 0.146336D-09 /
  2,11,13,13, -.142443D-10 /
  4,11,13,13, -.155304D-10 /
  6,11,13,13, -.634428D-10 /
  7,11,13,13, -.225869D-09 /
  9,11,13,13, -.828962D-11 /
 10,11,13,13, 0.531772D-09 /
 11,11,13,13, 0.462963D-09 /
  2,12,13,13, -.671804D-11 /
  4,12,13,13, 0.634482D-11 /
  6,12,13,13, 0.975664D-10 /
  7,12,13,13, 0.241533D-09 /
 10,12,13,13, -.394198D-09 /
 11,12,13,13, -.712668D-09 /
 12,12,13,13, 0.265533D-09 /
  1,13,13,13, -.715246D-09 /
  3,13,13,13, 0.254898D-09 /
  5,13,13,13, -.159739D-09 /
  8,13,13,13, -.505386D-09 /
 13,13,13,13, 0.160866D-09 /
  1, 1,14,14, -.837449D-10 /
  2, 2,14,14, -.151298D-09 /
  1, 3,14,14, -.428399D-09 /
  3, 3,14,14, -.712429D-09 /
  2, 4,14,14, -.682967D-09 /
  4, 4,14,14, -.626082D-09 /
  1, 5,14,14, 0.375997D-09 /
  3, 5,14,14, 0.132704D-08 /
  5, 5,14,14, -.600253D-09 /
  4, 6,14,14, -.379542D-09 /
  6, 6,14,14, 0.309649D-09 /
  2, 7,14,14, -.218838D-09 /
  4, 7,14,14, -.184681D-09 /
  6, 7,14,14, 0.146295D-09 /
  7, 7,14,14, 0.144539D-10 /
  1, 8,14,14, -.217503D-09 /
  3, 8,14,14, -.119684D-08 /
  5, 8,14,14, 0.110496D-08 /
  8, 8,14,14, -.749647D-09 /
  2, 9,14,14, -.600256D-09 /
  4, 9,14,14, -.489768D-09 /
  6, 9,14,14, -.104019D-09 /
  7, 9,14,14, -.163304D-09 /
  9, 9,14,14, 0.169443D-09 /
  2,10,14,14, 0.540828D-09 /
  4,10,14,14, 0.135539D-08 /
  7,10,14,14, -.108053D-09 /
  9,10,14,14, 0.105846D-08 /
 10,10,14,14, -.127566D-09 /
  2,11,14,14, -.331679D-09 /
  4,11,14,14, -.111269D-08 /
  6,11,14,14, 0.428602D-09 /
  7,11,14,14, 0.240038D-09 /
  9,11,14,14, -.631054D-09 /
 10,11,14,14, -.171716D-09 /
 11,11,14,14, 0.275883D-09 /
  2,12,14,14, -.169086D-09 /
  4,12,14,14, -.339337D-09 /
  6,12,14,14, -.171961D-09 /
  7,12,14,14, -.133324D-09 /
  9,12,14,14, 0.122085D-09 /
 10,12,14,14, 0.370332D-09 /
 11,12,14,14, -.393149D-09 /
 12,12,14,14, 0.337119D-11 /
  1,13,14,14, -.238875D-10 /
  3,13,14,14, -.124591D-09 /
  5,13,14,14, 0.147605D-09 /
  8,13,14,14, -.192671D-09 /
 13,13,14,14, -.409082D-10 /
  2,14,14,14, 0.216196D-10 /
  4,14,14,14, -.166815D-09 /
  6,14,14,14, -.614385D-09 /
  7,14,14,14, -.562354D-09 /
  9,14,14,14, 0.127871D-08 /
 10,14,14,14, 0.130145D-08 /
 11,14,14,14, -.122692D-08 /
 12,14,14,14, 0.516816D-09 /
 14,14,14,14, 0.219352D-08 /
  1, 1,15,15, -.162270D-07 /
  2, 2,15,15, -.214415D-08 /
  1, 3,15,15, 0.115049D-09 /
  3, 3,15,15, -.403714D-08 /
  2, 4,15,15, -.813267D-09 /
  4, 4,15,15, -.735441D-10 /
  1, 5,15,15, 0.209285D-08 /
  3, 5,15,15, 0.633925D-08 /
  5, 5,15,15, -.265993D-08 /
  4, 6,15,15, -.388324D-10 /
  6, 6,15,15, 0.850952D-10 /
  2, 7,15,15, -.920835D-08 /
  4, 7,15,15, -.173702D-08 /
  6, 7,15,15, -.778571D-10 /
  7, 7,15,15, -.102180D-07 /
  1, 8,15,15, 0.600807D-08 /
  3, 8,15,15, 0.125103D-07 /
  5, 8,15,15, -.104607D-07 /
  8, 8,15,15, -.107404D-07 /
  2, 9,15,15, 0.323114D-08 /
  4, 9,15,15, 0.542086D-09 /
  7, 9,15,15, 0.759287D-08 /
  9, 9,15,15, -.159145D-08 /
  2,10,15,15, 0.101701D-08 /
  4,10,15,15, 0.132444D-09 /
  6,10,15,15, 0.668615D-09 /
  7,10,15,15, 0.112669D-08 /
  9,10,15,15, 0.173831D-08 /
 10,10,15,15, -.559159D-08 /
  2,11,15,15, 0.454982D-08 /
  4,11,15,15, 0.653699D-09 /
  6,11,15,15, 0.131018D-08 /
  7,11,15,15, 0.985115D-08 /
  9,11,15,15, -.919772D-09 /
 10,11,15,15, -.148371D-07 /
 11,11,15,15, -.117221D-07 /
  2,12,15,15, -.809217D-09 /
  6,12,15,15, -.452098D-09 /
  7,12,15,15, -.613371D-08 /
  9,12,15,15, 0.460764D-08 /
 10,12,15,15, -.659086D-08 /
 11,12,15,15, -.443637D-09 /
 12,12,15,15, -.140300D-07 /
  1,13,15,15, -.828535D-08 /
  3,13,15,15, 0.473754D-08 /
  5,13,15,15, -.286407D-08 /
  8,13,15,15, -.251635D-08 /
 13,13,15,15, -.110819D-07 /
  2,14,15,15, -.353936D-09 /
  4,14,15,15, -.100625D-09 /
  6,14,15,15, 0.189101D-09 /
  7,14,15,15, -.593866D-09 /
  9,14,15,15, 0.318222D-09 /
 10,14,15,15, -.384763D-09 /
 11,14,15,15, -.527645D-09 /
 12,14,15,15, 0.140370D-08 /
 14,14,15,15, 0.195949D-09 /
  2,15,15,15, 0.264250D-09 /
  4,15,15,15, -.186652D-09 /
  6,15,15,15, 0.574827D-09 /
  7,15,15,15, 0.364930D-09 /
  9,15,15,15, 0.151199D-10 /
 10,15,15,15, -.848360D-09 /
 11,15,15,15, -.961608D-09 /
 12,15,15,15, 0.350963D-09 /
 14,15,15,15, 0.118912D-09 /
 15,15,15,15, 0.688950D-08 /
  1, 1,16,16, -.173105D-07 /
  2, 2,16,16, -.184590D-08 /
  1, 3,16,16, -.220895D-08 /
  3, 3,16,16, -.471717D-08 /
  2, 4,16,16, -.633399D-09 /
  4, 4,16,16, -.422353D-10 /
  1, 5,16,16, 0.436187D-08 /
  3, 5,16,16, 0.755191D-08 /
  5, 5,16,16, -.317601D-08 /
  2, 6,16,16, -.392799D-09 /
  4, 6,16,16, -.133599D-09 /
  6, 6,16,16, 0.116701D-09 /
  2, 7,16,16, -.850212D-08 /
  4, 7,16,16, -.148991D-08 /
  6, 7,16,16, -.758559D-09 /
  7, 7,16,16, -.100044D-07 /
  1, 8,16,16, 0.125774D-07 /
  3, 8,16,16, 0.144998D-07 /
  5, 8,16,16, -.123572D-07 /
  8, 8,16,16, -.123372D-07 /
  2, 9,16,16, 0.260561D-08 /
  4, 9,16,16, 0.394673D-09 /
  6, 9,16,16, 0.230423D-09 /
  7, 9,16,16, 0.692295D-08 /
  9, 9,16,16, -.145551D-08 /
  2,10,16,16, 0.399064D-08 /
  4,10,16,16, 0.775215D-09 /
  6,10,16,16, 0.536494D-09 /
  7,10,16,16, 0.646125D-08 /
  9,10,16,16, 0.467625D-09 /
 10,10,16,16, -.640085D-08 /
  2,11,16,16, 0.920402D-08 /
  4,11,16,16, 0.164869D-08 /
  6,11,16,16, 0.113944D-08 /
  7,11,16,16, 0.190857D-07 /
  9,11,16,16, -.369248D-08 /
 10,11,16,16, -.169143D-07 /
 11,11,16,16, -.140702D-07 /
  2,12,16,16, -.392578D-08 /
  4,12,16,16, -.588586D-09 /
  6,12,16,16, -.309636D-10 /
  7,12,16,16, -.142166D-07 /
  9,12,16,16, 0.959296D-08 /
 10,12,16,16, -.146459D-07 /
 11,12,16,16, -.564640D-08 /
 12,12,16,16, -.212560D-07 /
  1,13,16,16, -.190835D-07 /
  3,13,16,16, 0.902167D-08 /
  5,13,16,16, -.576124D-08 /
  8,13,16,16, -.887347D-08 /
 13,13,16,16, -.106873D-07 /
  2,14,16,16, 0.140651D-09 /
  4,14,16,16, 0.138309D-10 /
  6,14,16,16, 0.935958D-10 /
  7,14,16,16, 0.549817D-09 /
  9,14,16,16, -.315258D-09 /
 10,14,16,16, 0.604446D-09 /
 11,14,16,16, 0.332686D-09 /
 12,14,16,16, 0.167085D-08 /
 14,14,16,16, 0.262390D-09 /
  2,15,16,16, 0.111088D-08 /
  4,15,16,16, -.312814D-09 /
  6,15,16,16, 0.123446D-08 /
  7,15,16,16, 0.325164D-08 /
  9,15,16,16, -.247742D-08 /
 10,15,16,16, 0.367527D-08 /
 11,15,16,16, 0.188187D-08 /
 12,15,16,16, 0.953950D-08 /
 14,15,16,16, 0.547892D-09 /
 15,15,16,16, 0.602493D-07 /
  1,16,16,16, -.286199D-08 /
  3,16,16,16, -.231636D-09 /
  5,16,16,16, 0.433122D-09 /
  8,16,16,16, 0.325924D-09 /
 13,16,16,16, 0.918026D-09 /
 16,16,16,16, 0.160776D-07 /
  1, 1,17,17, -.141877D-07 /
  2, 2,17,17, -.408412D-08 /
  1, 3,17,17, 0.806543D-08 /
  3, 3,17,17, -.257201D-08 /
  2, 4,17,17, -.180135D-08 /
  4, 4,17,17, -.206914D-09 /
  1, 5,17,17, -.537468D-08 /
  3, 5,17,17, 0.378249D-08 /
  5, 5,17,17, -.150498D-08 /
  2, 6,17,17, 0.129798D-08 /
  4, 6,17,17, 0.299339D-09 /
  6, 6,17,17, -.617212D-10 /
  2, 7,17,17, -.158706D-07 /
  4, 7,17,17, -.347199D-08 /
  6, 7,17,17, 0.245275D-08 /
  7, 7,17,17, -.154035D-07 /
  1, 8,17,17, -.152446D-07 /
  3, 8,17,17, 0.957242D-08 /
  5, 8,17,17, -.719493D-08 /
  8, 8,17,17, -.907693D-08 /
  2, 9,17,17, 0.693547D-08 /
  4, 9,17,17, 0.144922D-08 /
  6, 9,17,17, -.111632D-08 /
  7, 9,17,17, 0.135454D-07 /
  9, 9,17,17, -.299153D-08 /
  2,10,17,17, -.920364D-08 /
  4,10,17,17, -.207019D-08 /
  6,10,17,17, 0.181779D-08 /
  7,10,17,17, -.177415D-07 /
  9,10,17,17, 0.838600D-08 /
 10,10,17,17, -.735454D-08 /
  2,11,17,17, -.986112D-08 /
  4,11,17,17, -.226264D-08 /
  6,11,17,17, 0.230173D-08 /
  7,11,17,17, -.185019D-07 /
  9,11,17,17, 0.918720D-08 /
 10,11,17,17, -.179167D-07 /
 11,11,17,17, -.111206D-07 /
  2,12,17,17, 0.907070D-08 /
  4,12,17,17, 0.207633D-08 /
  6,12,17,17, -.191514D-08 /
  7,12,17,17, 0.163209D-07 /
  9,12,17,17, -.701039D-08 /
 10,12,17,17, 0.112450D-07 /
 11,12,17,17, 0.152096D-07 /
 12,12,17,17, -.102047D-07 /
  1,13,17,17, 0.275207D-07 /
  3,13,17,17, -.102881D-07 /
  5,13,17,17, 0.756770D-08 /
  8,13,17,17, 0.230947D-07 /
 13,13,17,17, -.252819D-07 /
  2,14,17,17, -.239492D-08 /
  4,14,17,17, -.535173D-09 /
  6,14,17,17, 0.514238D-09 /
  7,14,17,17, -.460350D-08 /
  9,14,17,17, 0.215006D-08 /
 10,14,17,17, -.323675D-08 /
 11,14,17,17, -.380585D-08 /
 12,14,17,17, 0.370346D-08 /
 14,14,17,17, -.240559D-09 /
  2,15,17,17, -.178876D-08 /
  4,15,17,17, -.697066D-09 /
  6,15,17,17, 0.416210D-09 /
  7,15,17,17, -.618020D-08 /
  9,15,17,17, 0.302483D-08 /
 10,15,17,17, -.145803D-08 /
 11,15,17,17, 0.282637D-08 /
 12,15,17,17, -.490460D-08 /
 14,15,17,17, -.143644D-08 /
 15,15,17,17, 0.474644D-07 /
  1,16,17,17, 0.767346D-08 /
  3,16,17,17, -.199674D-08 /
  5,16,17,17, 0.123217D-08 /
  8,16,17,17, 0.248365D-08 /
 13,16,17,17, -.132225D-08 /
 15,16,17,17, -.921072D-11 /
 16,16,17,17, 0.148537D-07 /
  2,17,17,17, 0.727314D-09 /
  4,17,17,17, -.316482D-10 /
  6,17,17,17, -.130113D-09 /
  7,17,17,17, -.205091D-09 /
  9,17,17,17, 0.339173D-09 /
 10,17,17,17, 0.653666D-09 /
 11,17,17,17, 0.276786D-08 /
 12,17,17,17, -.277897D-08 /
 14,17,17,17, -.919677D-09 /
 15,17,17,17, 0.586625D-07 /
 16,17,17,17, -.558266D-11 /
 17,17,17,17, 0.363873D-07 /
  1, 1,18,18, -.310761D-09 /
  2, 2,18,18, -.281680D-08 /
  1, 3,18,18, -.726305D-08 /
  3, 3,18,18, -.428109D-07 /
  2, 4,18,18, 0.848742D-08 /
  4, 4,18,18, -.650009D-08 /
  1, 5,18,18, -.889379D-08 /
  3, 5,18,18, -.104553D-06 /
  5, 5,18,18, -.640661D-07 /
  2, 6,18,18, 0.630848D-08 /
  4, 6,18,18, -.962609D-08 /
  6, 6,18,18, -.348353D-08 /
  2, 7,18,18, 0.846213D-08 /
  4, 7,18,18, -.127801D-07 /
  6, 7,18,18, -.950479D-08 /
  7, 7,18,18, -.625018D-08 /
  1, 8,18,18, 0.349558D-09 /
  3, 8,18,18, 0.415577D-08 /
  5, 8,18,18, 0.515598D-08 /
  8, 8,18,18, -.543878D-10 /
  2, 9,18,18, 0.248116D-07 /
  4, 9,18,18, -.376159D-07 /
  6, 9,18,18, -.279846D-07 /
  7, 9,18,18, -.366287D-07 /
  9, 9,18,18, -.541952D-07 /
  2,10,18,18, 0.153332D-07 /
  4,10,18,18, -.232932D-07 /
  6,10,18,18, -.171180D-07 /
  7,10,18,18, -.228000D-07 /
  9,10,18,18, -.668963D-07 /
 10,10,18,18, -.206571D-07 /
  2,11,18,18, -.733970D-08 /
  4,11,18,18, 0.110971D-07 /
  6,11,18,18, 0.822897D-08 /
  7,11,18,18, 0.106853D-07 /
  9,11,18,18, 0.319326D-07 /
 10,11,18,18, 0.197567D-07 /
 11,11,18,18, -.474652D-08 /
  2,12,18,18, -.143077D-08 /
  4,12,18,18, 0.215568D-08 /
  6,12,18,18, 0.152539D-08 /
  7,12,18,18, 0.205569D-08 /
  9,12,18,18, 0.611803D-08 /
 10,12,18,18, 0.382071D-08 /
 11,12,18,18, -.179287D-08 /
 12,12,18,18, -.139499D-09 /
  1,13,18,18, 0.132635D-10 /
  3,13,18,18, -.848417D-09 /
  5,13,18,18, -.947872D-09 /
  8,13,18,18, 0.596902D-10 /
 13,13,18,18, 0.435821D-10 /
  2,14,18,18, -.531743D-08 /
  4,14,18,18, 0.795687D-08 /
  6,14,18,18, 0.587480D-08 /
  7,14,18,18, 0.774981D-08 /
  9,14,18,18, 0.232472D-07 /
 10,14,18,18, 0.143212D-07 /
 11,14,18,18, -.689524D-08 /
 12,14,18,18, -.129815D-08 /
 14,14,18,18, -.228270D-08 /
  2,15,18,18, -.588203D-10 /
  4,15,18,18, 0.412308D-10 /
  6,15,18,18, 0.106663D-09 /
  7,15,18,18, -.476324D-10 /
  9,15,18,18, 0.102517D-09 /
 10,15,18,18, 0.182410D-09 /
 11,15,18,18, -.137721D-09 /
 12,15,18,18, 0.952986D-10 /
 14,15,18,18, -.296845D-10 /
 15,15,18,18, 0.193838D-09 /
  1,16,18,18, -.641035D-11 /
  3,16,18,18, -.766657D-10 /
  5,16,18,18, -.851373D-10 /
  8,16,18,18, -.322528D-10 /
 13,16,18,18, -.392989D-10 /
 16,16,18,18, 0.233059D-09 /
  2,17,18,18, -.559598D-10 /
  6,17,18,18, -.169149D-10 /
  7,17,18,18, -.371240D-10 /
  9,17,18,18, 0.139040D-09 /
 10,17,18,18, -.797093D-11 /
 11,17,18,18, -.606696D-10 /
 12,17,18,18, 0.483475D-10 /
 14,17,18,18, -.235472D-10 /
 15,17,18,18, -.166614D-09 /
 17,17,18,18, 0.551041D-10 /
  2,18,18,18, 0.962482D-09 /
  4,18,18,18, -.286585D-08 /
  6,18,18,18, -.253331D-08 /
  7,18,18,18, -.356946D-08 /
  9,18,18,18, -.954313D-08 /
 10,18,18,18, -.837792D-08 /
 11,18,18,18, 0.425081D-08 /
 12,18,18,18, 0.939450D-09 /
 14,18,18,18, 0.297326D-08 /
 15,18,18,18, 0.528397D-09 /
 17,18,18,18, -.375923D-09 /
 18,18,18,18, 0.852633D-07 /
 0.287804D+06,0.345949D+06,0.613488D+06 /
  2,19, 1, -.160579D-01 /
  3,19, 2, -.346110D+00 /
  4,19, 1, 0.144380D+00 /
  4,19, 3, -.129974D+00 /
  5,19, 2, -.194994D-01 /
  5,19, 4, 0.209575D+00 /
  6,19, 1, 0.158649D+00 /
  6,19, 3, -.241001D+00 /
  6,19, 5, -.730215D-01 /
  7,19, 1, -.630630D-01 /
  7,19, 3, 0.101984D-02 /
  7,19, 5, -.361062D+00 /
  8,19, 2, -.187060D+00 /
  8,19, 4, -.425360D-01 /
  8,19, 6, 0.894983D-01 /
  8,19, 7, 0.174778D+00 /
  9,19, 1, -.950473D-01 /
  9,19, 3, -.319234D+00 /
  9,19, 5, -.615125D+00 /
  9,19, 8, 0.258196D+00 /
 10,19, 1, -.236891D+00 /
 10,19, 3, -.470834D+00 /
 10,19, 5, -.177450D+00 /
 10,19, 8, -.256182D+00 /
 11,19, 1, -.246210D+00 /
 11,19, 3, 0.365421D+00 /
 11,19, 5, -.588885D-02 /
 11,19, 8, 0.164522D+00 /
 12,19, 1, 0.491175D-01 /
 12,19, 3, 0.115638D+00 /
 12,19, 5, -.267963D-01 /
 12,19, 8, -.132308D-01 /
 13,19, 2, -.147720D+00 /
 13,19, 4, -.248041D-01 /
 13,19, 6, 0.353681D-01 /
 13,19, 7, -.154062D+00 /
 13,19, 9, 0.240271D-01 /
 13,19,10, 0.122017D-01 /
 13,19,11, -.793030D-01 /
 13,19,12, 0.307939D+00 /
 14,19, 1, -.128122D+00 /
 14,19, 3, -.349856D+00 /
 14,19, 5, 0.510067D+00 /
 14,19, 8, -.434781D+00 /
 14,19,13, -.181514D-01 /
 15,19, 1, 0.893593D+00 /
 15,19, 3, -.216885D-01 /
 15,19, 5, -.384849D-01 /
 15,19, 8, -.105821D+00 /
 15,19,13, 0.105414D+00 /
 16,19, 2, -.110549D+00 /
 16,19, 4, -.161982D-01 /
 16,19, 6, -.622476D-02 /
 16,19, 7, -.350559D+00 /
 16,19, 9, 0.202032D+00 /
 16,19,10, -.216960D+00 /
 16,19,11, 0.350934D-02 /
 16,19,12, -.834064D+00 /
 16,19,14, 0.314057D-01 /
 16,19,15, -.782836D-02 /
 17,19, 1, 0.796199D-01 /
 17,19, 3, -.180184D+00 /
 17,19, 5, 0.155323D+00 /
 17,19, 8, 0.424936D+00 /
 17,19,13, -.767257D+00 /
 17,19,16, -.579001D-01 /
 18,19, 1, 0.614156D-02 /
 18,19, 3, 0.103355D+00 /
 18,19, 5, 0.131696D+00 /
 18,19, 8, -.588894D-02 /
  2,19, 1, -.404204D+00 /
  3,19, 2, -.272553D-01 /
  4,19, 1, -.107663D+00 /
  4,19, 3, -.141190D+00 /
  5,19, 2, 0.496543D-01 /
  5,19, 4, -.290114D+00 /
  6,19, 1, -.212327D-01 /
  6,19, 3, -.134672D+00 /
  6,19, 5, 0.329842D-01 /
  7,19, 1, -.425187D+00 /
  7,19, 3, -.976631D-01 /
  7,19, 5, 0.141944D+00 /
  8,19, 2, 0.486948D-01 /
  8,19, 4, 0.861775D-01 /
  8,19, 6, 0.216939D+00 /
  8,19, 7, 0.124253D+00 /
  9,19, 1, 0.121708D+00 /
  9,19, 3, -.123519D+00 /
  9,19, 5, 0.237930D+00 /
  9,19, 8, -.211079D+00 /
 10,19, 1, -.734725D-02 /
 10,19, 3, 0.376165D+00 /
 10,19, 5, -.206125D+00 /
 10,19, 8, 0.191427D+00 /
 11,19, 1, 0.114848D+00 /
 11,19, 3, -.198133D+00 /
 11,19, 5, 0.802023D-01 /
 11,19, 8, -.466112D+00 /
 12,19, 1, 0.251447D+00 /
 12,19, 3, -.355630D+00 /
 12,19, 5, 0.266861D+00 /
 12,19, 8, 0.332279D+00 /
 13,19, 2, -.175962D+00 /
 13,19, 4, -.401271D-01 /
 13,19, 6, 0.935549D-01 /
 13,19, 7, -.355615D+00 /
 13,19, 9, 0.242235D+00 /
 13,19,10, -.442086D+00 /
 13,19,11, -.374665D+00 /
 13,19,12, 0.139316D-01 /
 14,19, 1, -.120707D+00 /
 14,19, 3, -.325426D+00 /
 14,19, 5, 0.243135D+00 /
 14,19, 8, -.347357D+00 /
 14,19,13, -.238040D-02 /
 15,19, 1, 0.364082D-02 /
 15,19, 3, 0.360888D+00 /
 15,19, 5, -.290398D+00 /
 15,19, 8, -.605040D+00 /
 15,19,13, -.186529D+00 /
 16,19, 2, 0.171104D+00 /
 16,19, 4, 0.284020D-01 /
 16,19, 6, 0.315073D-01 /
 16,19, 7, 0.348052D+00 /
 16,19, 9, -.444829D-01 /
 16,19,10, -.400475D+00 /
 16,19,11, -.600627D+00 /
 16,19,12, -.248598D+00 /
 16,19,14, 0.202369D-01 /
 16,19,15, -.302716D-01 /
 17,19, 1, -.238087D+00 /
 17,19, 3, -.802359D-01 /
 17,19, 5, 0.711596D-01 /
 17,19, 8, 0.871454D-01 /
 17,19,13, 0.432912D+00 /
 17,19,16, 0.161321D-01 /
 18,19, 1, 0.521048D-01 /
 18,19, 3, 0.621566D+00 /
 18,19, 5, 0.751945D+00 /
 18,19, 8, -.233916D-01 /
 18,19,13, 0.724115D-02 /
  3,19, 1, 0.279274D+00 /
  4,19, 2, 0.669461D+00 /
  5,19, 1, -.222446D+00 /
  5,19, 3, 0.203716D-01 /
  6,19, 2, -.604361D-01 /
  6,19, 4, -.664605D-01 /
  7,19, 2, -.230458D+00 /
  7,19, 4, 0.366170D+00 /
  7,19, 6, -.899676D-01 /
  8,19, 1, -.424330D+00 /
  8,19, 3, 0.719619D-01 /
  8,19, 5, -.263662D-01 /
  9,19, 2, -.416137D+00 /
  9,19, 4, -.141115D+00 /
  9,19, 6, 0.718422D-01 /
  9,19, 7, 0.958892D-01 /
 10,19, 2, 0.265052D+00 /
 10,19, 4, -.229502D+00 /
 10,19, 6, -.206598D+00 /
 10,19, 7, 0.196541D+00 /
 10,19, 9, -.152818D-02 /
 11,19, 2, -.147137D+00 /
 11,19, 4, 0.185624D+00 /
 11,19, 6, 0.174873D+00 /
 11,19, 7, 0.201718D+00 /
 11,19, 9, -.157528D+00 /
 11,19,10, 0.103053D+00 /
 12,19, 2, 0.120423D+00 /
 12,19, 4, -.161214D-01 /
 12,19, 6, 0.904344D-01 /
 12,19, 7, 0.411982D+00 /
 12,19, 9, -.117398D+00 /
 12,19,10, -.241611D+00 /
 12,19,11, -.503305D+00 /
 13,19, 1, -.333231D+00 /
 13,19, 3, -.179874D+00 /
 13,19, 5, 0.167580D+00 /
 13,19, 8, 0.359166D+00 /
 14,19, 2, -.284381D+00 /
 14,19, 4, -.479623D+00 /
 14,19, 6, -.898112D-01 /
 14,19, 7, -.158828D+00 /
 14,19, 9, -.325666D+00 /
 14,19,10, 0.526283D+00 /
 14,19,11, -.408445D+00 /
 14,19,12, -.134995D+00 /
 15,19, 2, 0.258420D+00 /
 15,19, 4, 0.514625D-01 /
 15,19, 6, -.424631D-02 /
 15,19, 7, 0.567028D+00 /
 15,19, 9, -.208721D+00 /
 15,19,10, 0.236855D-02 /
 15,19,11, -.168077D+00 /
 15,19,12, -.563123D-01 /
 15,19,14, 0.498449D-01 /
 16,19, 1, -.196571D+00 /
 16,19, 3, 0.210751D+00 /
 16,19, 5, -.153527D+00 /
 16,19, 8, -.269564D+00 /
 16,19,13, -.378076D+00 /
 17,19, 2, 0.193095D+00 /
 17,19, 4, 0.447135D-01 /
 17,19, 6, -.634535D-01 /
 17,19, 7, 0.359349D+00 /
 17,19, 9, -.192495D+00 /
 17,19,10, 0.428193D+00 /
 17,19,11, 0.551278D+00 /
 17,19,12, -.423009D+00 /
 17,19,14, 0.835388D-01 /
 17,19,15, 0.404176D-01 /
 18,19, 2, 0.164423D+00 /
 18,19, 4, -.251328D+00 /
 18,19, 6, -.192396D+00 /
 18,19, 7, -.240437D+00 /
 18,19, 9, -.719370D+00 /
 18,19,10, -.461261D+00 /
 18,19,11, 0.226048D+00 /
 18,19,12, 0.425390D-01 /
 18,19,14, 0.150362D+00 /
 18,19,15, 0.189554D-02 /
 ***************** cut here for POLYMODE input *****************

     ==================================================
      Inertia Moments Derivatives w.r.t. Normal Modes
     ==================================================

 Units: amu^1/2.Ang

                 Ixx        Ixy        Iyy        Ixz        Iyz        Izz
 Q(     1)     0.03275    0.29945    1.83780    0.00001   -0.00000    1.86169
 Q(     2)    -0.39298    0.90996    0.60504   -0.00002   -0.00013   -1.44433
 Q(     3)     0.00010    0.00000   -0.00008    0.68507   -1.26507    0.00021
 Q(     4)    -3.28479   -0.02328   -2.11831    0.00002   -0.00002   -1.79980
 Q(     5)    -3.61627   -1.73957   -1.05808   -0.00001    0.00001   -4.55713
 Q(     6)    -0.00004   -0.00001    0.00011    1.23897    1.14827   -0.00019
 Q(     7)    -0.96735   -1.10541    1.28482    0.00001   -0.00016   -2.25736
 Q(     8)     1.23316    1.29416    0.49648    0.00004    0.00004    0.83790
 Q(     9)     0.35056   -2.26695    0.22932    0.00001   -0.00002   -0.56711
 Q(    10)    -5.63131   -1.78792    1.23363    0.00001    0.00003   -3.92785
 Q(    11)     0.00005    0.00003    0.00005    1.53418   -0.38310    0.00019
 Q(    12)    -1.41813    4.50598    0.52677   -0.00001   -0.00002   -1.33855
 Q(    13)     7.58467   -0.53340   10.28279   -0.00000    0.00000   17.88042
 Q(    14)    -0.00009    0.00005    0.00000    0.80677   -0.09445   -0.00007
 Q(    15)     7.49696   -2.59344   -9.25150   -0.00002    0.00000   -1.75516
 Q(    16)    -0.00018    0.00015    0.00031   -1.01657   -0.03821    0.00013
 Q(    17)    -1.67073   -7.13478    2.85496   -0.00001    0.00001    1.13297
 Q(    18)     0.00001    0.00007   -0.00002    0.04036    1.71203   -0.00001

     ==================================================
               Vibro-rotational Alpha Matrix
     ==================================================

 Vibro-Rot alpha Matrix (in cm^-1)
 ---------------------------------
                 A(x)           B(y)           C(z)
 Q(     1)       -0.00020        0.00035        0.00006
 Q(     2)        0.00013        0.00026        0.00009
 Q(     3)        0.00026        0.00009        0.00005
 Q(     4)        0.00029        0.00017        0.00004
 Q(     5)        0.00112        0.00073        0.00042
 Q(     6)        0.00007       -0.00185       -0.00005
 Q(     7)        0.00027       -0.00025       -0.00078
 Q(     8)        0.00035        0.00168        0.00107
 Q(     9)        0.00042        0.00071        0.00039
 Q(    10)        0.00057        0.00001        0.00040
 Q(    11)        0.00017        0.00060        0.00005
 Q(    12)        0.00030        0.00050        0.00029
 Q(    13)        0.00030        0.00126        0.00049
 Q(    14)        0.00113       -0.00045        0.00001
 Q(    15)        0.00026       -0.00032       -0.00014
 Q(    16)        0.00014        0.00038       -0.00012
 Q(    17)       -0.00040       -0.00025        0.00049
 Q(    18)       -0.00020        0.00054       -0.00005

 Vibro-Rot alpha Matrix (in MHz)
 -------------------------------
                 A(x)           B(y)           C(z)
 Q(     1)       -5.86873       10.44681        1.83248
 Q(     2)        4.00786        7.80760        2.59181
 Q(     3)        7.70419        2.65902        1.35769
 Q(     4)        8.59987        5.02282        1.33722
 Q(     5)       33.47903       21.98576       12.50094
 Q(     6)        2.12913      -55.56921       -1.41240
 Q(     7)        7.95381       -7.48041      -23.32796
 Q(     8)       10.46439       50.48605       31.95017
 Q(     9)       12.48229       21.42270       11.65743
 Q(    10)       17.10954        0.42223       12.11841
 Q(    11)        5.02114       18.11059        1.58486
 Q(    12)        9.01171       15.03941        8.81240
 Q(    13)        8.94160       37.80770       14.74186
 Q(    14)       33.94771      -13.50076        0.18001
 Q(    15)        7.91543       -9.71869       -4.05550
 Q(    16)        4.06138       11.28668       -3.51693
 Q(    17)      -11.90707       -7.63785       14.64975
 Q(    18)       -6.03071       16.14856       -1.44568

     ==================================================
          Quartic Centrifugal Distortion Constants
     ==================================================

 NOTE: Values in Cartesian coords. refer to the structure in Eckart orientation.

 Quartic Centrifugal Distortion Constants Tau Prime
 --------------------------------------------------
                      cm^-1                    MHz
 TauP aaaa     -0.1418467396D-05        -0.4252458274D-01
 TauP bbaa     -0.1864096691D-05        -0.5588421291D-01
 TauP bbbb     -0.1043300226D-05        -0.3127735393D-01
 TauP ccaa     -0.1858810334D-06        -0.5572573189D-02
 TauP ccbb     -0.1074996624D-05        -0.3222758804D-01
 TauP cccc     -0.1106142317D-06        -0.3316131240D-02

 Asymmetric Top Reduction
 ------------------------
       Asymmetry parameter     | Reference formula
  Kappa :         0.3668016082 |    [2B-A-C]/[A-C]
  Delta :         0.6834008041 |       [B-C]/[A-C]
  Sigma :        -5.3172149964 | [2A'-B'-C']/[B'-C']

 (A,B,C)   : equilibrium rotational constants
 (A',B',C'): effective rotational constants

 Constants in the Asymmetrically reduced Hamiltonian
 ---------------------------------------------------
                        cm^-1                   MHz
  DELTA J  :    0.3077209529D-06         0.9225242084D-02
  DELTA K  :   -0.1381481236D-06        -0.4141576555D-02
  DELTA JK :   -0.1419192713D-06        -0.4254632719D-02
  delta J  :    0.2344794813D-07         0.7029518004D-03
  delta K  :    0.2862787306D-06         0.8582420433D-02

 Effective Rotational Constants
 (Include Terms due to Quartic Centrifugal Distortion Constants)
 ---------------------------------------------------------------
           Be in cm^-1             B(A) in cm^-1            B(A) in MHz
 a          0.381291321             0.381292004              11430.84672
 b          0.317206284             0.317205284               9509.57519
 c          0.178874393             0.178874710               5362.52890

 Nielsen Centrifugal Distortion Constants
 ----------------------------------------
                cm^-1                    MHz
 DJ     0.3472967579D-06         0.1041169487D-01
 DJK   -0.3793741013D-06        -0.1137334943D-01
 DK     0.5973090135D-07         0.1790687373D-02
 dJ     0.2344794813D-07         0.7029518004D-03
 R5     0.6729369850D-07         0.2017414328D-02
 R6     0.1978790250D-07         0.5932263928D-03

 Constants in the Symmetrically Reduced Hamiltonian
 --------------------------------------------------
                    cm^-1                     MHz
  D J  :    0.3346409411D-06         0.1003228303D-01
  D JK :   -0.3034392009D-06        -0.9096878390D-02
  D K  :   -0.3548182289D-08        -0.1063718290D-03
  d 1  :   -0.2344794813D-07        -0.7029518004D-03
  d 2  :    0.1345999413D-07         0.4035204726D-03


 Effective Rotational Constants
 (Include Terms due to Quartic Centrifugal Distortion Constants)
 ---------------------------------------------------------------
           Be in cm^-1             B(S) in cm^-1            B(S) in MHz
 a          0.381291321             0.381291486              11430.83117
 b          0.317206284             0.317205911               9509.59397
 c          0.178874393             0.178874575               5362.52486

 Wilson Centrifugal Distortion Constants
 ---------------------------------------
                cm^-1                    MHz
 DJ     0.3546168491D-06         0.1063114568D-01
 DJK   -0.6162931816D-06        -0.1847600477D-01
 DK     0.2893298904D-06         0.8673891900D-02

 Nielsen Centrifugal Distortion Constants
 ----------------------------------------
                cm^-1                    MHz
 DJ     0.3472967579D-06         0.1041169487D-01
 DJK   -0.3793741013D-06        -0.1137334943D-01
 DK     0.5973090135D-07         0.1790687373D-02
 dJ     0.2344794813D-07         0.7029518004D-03
 R5     0.6729369850D-07         0.2017414328D-02
 R6     0.1978790250D-07         0.5932263928D-03

 Rotational Constants (in cm^-1)
 -------------------------------
 equilibrium (e), ground vibr.state (00), and 00 + centr. dist.(0)
 Ae=   0.3812913     A00=   0.3788059     A0=   0.3788061
 Be=   0.3172063     B00=   0.3151259     B0=   0.3151255
 Ce=   0.1788744     C00=   0.1775142     C0=   0.1775144

 Rotational Constants (in MHz)
 -----------------------------
 equilibrium (e), ground vibr.state (00), and 00 + centr. dist.(0)
 Ae=   11430.826     A00=   11356.315     A0=   11356.320
 Be=    9509.605     B00=    9447.236     B0=    9447.224
 Ce=    5362.519     C00=    5321.741     C0=    5321.747

     ==================================================
           Sextic Centrifugal Distortion Constants
     ==================================================

 Sextic Distortion Constants
 ---------------------------
                       in cm-1                  in Hz
 Phi aaa         0.4639556493D-12         0.1390904045D-01
 Phi aab         0.2950013169D-11         0.8843916992D-01
 Phi aac        -0.3179851272D-12        -0.9532954290D-02
 Phi abb        -0.5133713897D-12        -0.1539048708D-01
 Phi abc         0.9308553993D-11         0.2790634282D+00
 Phi acc        -0.6477547542D-11        -0.1941919899D+00
 Phi bbb         0.2950641320D-12         0.8845800140D-02
 Phi bbc        -0.8803418256D-12        -0.2639198398D-01
 Phi bcc         0.4716746008D-12         0.1414044879D-01
 Phi ccc        -0.1643105842D-14        -0.4925907392D-04

 Asymmetric Top Reduction
 ------------------------
       Asymmetry parameter     | Reference formula
  Kappa :         0.3668016082 |    [2B-A-C]/[A-C]
  Delta :         0.6834008041 |       [B-C]/[A-C]
  Sigma :        -5.3172149964 | [2A'-B'-C']/[B'-C']

 (A,B,C)   : equilibrium rotational constants
 (A',B',C'): effective rotational constants

 Constants in the A reduced Hamiltonian
 --------------------------------------
                       in cm^-1                 in Hz
 Phi J  :         0.3795098907D-12         0.1137742030D-01
 Phi K  :         0.2520436590D-10         0.7556078806D+00
 Phi JK :         0.8625305661D-11         0.2585801585D+00
 Phi KJ :        -0.3421082456D-10        -0.1025614719D+01
 phi j  :         0.4222287934D-13         0.1265810078D-02
 phi k  :        -0.3427673518D-10        -0.1027590669D+01
 phi jk :         0.2892704357D-11         0.8672109495D-01

 rho    :        -0.6327908364D-08
 mu     :         0.2976314941D-12
 nu     :         0.2841079601D-14
 lambda :        -0.1308994365D-13

 Constants in the S reduced Hamiltonian
 --------------------------------------
                       in cm^-1                 in Hz
 H J  :           0.5548638478D-12         0.1663439968D-01
 H K  :           0.4807428756D-11         0.1441230883D+00
 H JK :          -0.1168362573D-11        -0.3502662876D-01
 H KJ :          -0.4195573136D-11        -0.1257801183D+00
 h  1 :           0.1449736372D-12         0.4346200306D-02
 h  2 :          -0.8767697855D-13        -0.2628489691D-02
 h  3 :          -0.1027507579D-12        -0.3080390228D-02

     ==================================================
       Average Coordinates and Mean Square Amplitudes
     ==================================================

 NOTE: Temperature is given in K between parentheses
       For Cartesian and internal coords., units are given between
       parentheses next to each label

 Mean Square Amplitudes of Normal Coordinates (in amu.bohr^2)
 -----------------------------------------------------------
 Mode    <Q^2> (0)    <Q^2> (298.15)    <Q^2> (298.15) class.
    1     0.015993       0.015993          0.069517
    2     0.018873       0.018873          0.096805
    3     0.019137       0.019138          0.099542
    4     0.019543       0.019543          0.103801
    5     0.032652       0.032661          0.289776
    6     0.041053       0.041122          0.458060
    7     0.041217       0.041289          0.461737
    8     0.042626       0.042719          0.493830
    9     0.044935       0.045076          0.548800
   10     0.049507       0.049788          0.666151
   11     0.056574       0.057244          0.869910
   12     0.060197       0.061171          0.984897
   13     0.068769       0.070812          1.285366
   14     0.090806       0.098530          2.241117
   15     0.102321       0.115031          2.845564
   16     0.110708       0.128017          3.331135
   17     0.142590       0.185345          5.526084
   18     0.825989       4.745371        185.432233

 Average Normal Coordinates (in amu^1/2.bohr)
 --------------------------------------------
   Mode    <Q> (0)       <Q> (298.15)
      1    -0.008266       -0.015437
      2     0.003301        0.033948
      3     0.000002        0.000002
      4     0.079884        0.584439
      5    -0.007674       -0.011974
      6     0.000000        0.000000
      7     0.006431        0.061691
      8    -0.033270       -0.193267
      9    -0.012938       -0.112539
     10    -0.000296        0.019571
     11     0.000000        0.000000
     12    -0.003550        0.020576
     13     0.078378        0.085993
     14     0.000000        0.000000
     15     0.005515        0.012905
     16     0.000000        0.000000
     17     0.031243        0.162092
     18     0.000000        0.000000

 Mean Square Amplitudes of Cartesian Coordinates
 -----------------------------------------------
    Label        <(S-Se)^2>^1/2 (0)    <(S-Se)^2>^1/2 (298.15)
 X(1)  (Angs)        0.035585              0.036765
 Y(1)  (Angs)        0.030202              0.032596
 Z(1)  (Angs)        0.018663              0.019221
 X(2)  (Angs)        0.119300              0.122925
 Y(2)  (Angs)        0.089315              0.093164
 Z(2)  (Angs)        0.261851              0.594654
 X(3)  (Angs)        0.126490              0.131242
 Y(3)  (Angs)        0.248832              0.564589
 Z(3)  (Angs)        0.167451              0.363450
 X(4)  (Angs)        0.126490              0.131243
 Y(4)  (Angs)        0.248848              0.564628
 Z(4)  (Angs)        0.167432              0.363401
 X(5)  (Angs)        0.029828              0.030192
 Y(5)  (Angs)        0.031118              0.032703
 Z(5)  (Angs)        0.040288              0.043651
 X(6)  (Angs)        0.029355              0.031876
 Y(6)  (Angs)        0.027223              0.028354
 Z(6)  (Angs)        0.027185              0.059221
 X(7)  (Angs)        0.030311              0.033610
 Y(7)  (Angs)        0.028094              0.028910
 Z(7)  (Angs)        0.026623              0.055882
 X(8)  (Angs)        0.071662              0.072511
 Y(8)  (Angs)        0.123499              0.126585
 Z(8)  (Angs)        0.159423              0.169020

 Average Cartesian Coordinates
 -----------------------------
    Label              Se         <S> = Sz (0)   <S> = Sz (298.15)
 X(1)  (Angs)       1.453450        1.459445        1.460951
 Y(1)  (Angs)      -0.061786       -0.060923       -0.058624
 Z(1)  (Angs)      -0.000000        0.000000        0.000001
 X(2)  (Angs)       1.925202        1.931182        1.909484
 Y(2)  (Angs)       0.915074        0.894462        0.765539
 Z(2)  (Angs)      -0.000043       -0.000041       -0.000032
 X(3)  (Angs)       1.758982        1.770105        1.787822
 Y(3)  (Angs)      -0.628754       -0.609648       -0.493060
 Z(3)  (Angs)      -0.878751       -0.855573       -0.715661
 X(4)  (Angs)       1.758984        1.770106        1.787821
 Y(4)  (Angs)      -0.628673       -0.609568       -0.492985
 Z(4)  (Angs)       0.878803        0.855621        0.715691
 X(5)  (Angs)      -0.036533       -0.037858       -0.038586
 Y(5)  (Angs)       0.101106        0.101754        0.095601
 Z(5)  (Angs)      -0.000001       -0.000001       -0.000001
 X(6)  (Angs)      -0.634871       -0.634791       -0.627544
 Y(6)  (Angs)       1.142772        1.146329        1.142938
 Z(6)  (Angs)       0.000000        0.000000        0.000000
 X(7)  (Angs)      -0.669122       -0.674355       -0.682790
 Y(7)  (Angs)      -1.093778       -1.098803       -1.099365
 Z(7)  (Angs)      -0.000000        0.000000        0.000000
 X(8)  (Angs)      -1.618837       -1.620894       -1.625026
 Y(8)  (Angs)      -0.903381       -0.915677       -0.911312
 Z(8)  (Angs)       0.000003        0.000003        0.000003

 Internal coordinates for the Equilibrium structure (Se)
                           Interatomic distances:
                    1          2          3          4          5
     1  C    0.000000
     2  H    1.084807   0.000000
     3  H    1.089498   1.784142   0.000000
     4  H    1.089498   1.784139   1.757554   0.000000
     5  C    1.498860   2.123899   2.128091   2.128087   0.000000
     6  O    2.410818   2.570179   3.105003   3.104973   1.201282
     7  O    2.360153   3.281159   2.623765   2.623799   1.352005
     8  H    3.185471   3.983339   3.501041   3.501061   1.874214
                    6          7          8
     6  O    0.000000
     7  O    2.236813   0.000000
     8  H    2.270447   0.968612   0.000000
                           Interatomic angles:
       H2-C1-H3=110.2811       H2-C1-H4=110.2808       H3-C1-H4=107.5279
       H2-H4-H3= 60.4918       H2-C1-C5=109.5381       H3-C1-C5=109.5925
       H3-H2-C5= 65.3128       H4-C1-C5=109.5921       H4-H2-C5= 65.3127
       H3-H4-C5= 65.6103       H2-C1-O6= 85.8005       H3-C1-O6=120.1943
       H3-H2-O6= 89.0757       H4-C1-O6=120.1919       H4-H2-O6= 89.0746
       C1-C5-O6=126.1123       H2-C5-O6= 97.3386       H3-C5-O6=135.8598
       H4-C5-O6=135.8572       H2-C1-O7=141.7061       H3-C1-O7= 91.413
       H2-H3-O7= 94.2799       H4-C1-O7= 91.415        H2-H4-O7= 94.2788
       H4-H3-O7= 70.4329       C1-C5-O7=111.6584       H2-C5-O7=140.4321
       H3-C5-O7= 95.2592       H4-C5-O7= 95.2611       C1-O7-O6= 63.1937
       H2-O6-O7= 85.7948       H3-O7-O6= 78.9664       H4-O7-O6= 78.9647
       O6-C5-O7=122.2293       C1-C5-H8=141.3525       H2-C5-H8=170.1263
       H3-C5-H8=121.9042       H4-C5-H8=121.9055       C1-O6-H8= 85.7056
       H2-O6-H8=110.5996       O6-C5-H8= 92.5351       C1-O7-H8=142.7347
       H3-O7-H8=150.7546       H4-O7-H8=150.7524       C5-O7-H8=106.5611
       O6-O7-H8= 79.5411
                              Dihedral angles:
     H4-C1-H3-H2=-120.28    C5-C1-H3-H2= 120.66    C5-C1-H4-H2=-120.66
     C5-C1-H4-H3= 119.06    C5-H2-H4-H3=  74.92    O6-C1-H3-H2=  97.16
     O6-C1-H4-H2= -97.16    O6-C1-H4-H3= 142.56    O6-H2-H4-H3=  89.48
     O6-C5-C1-H2=  0.       O6-C5-C1-H3=-121.11    O6-C5-H2-H3=-147.18
     O6-C5-C1-H4= 121.11    O6-C5-H2-H4= 147.17    O6-C5-H4-H3=-117.86
     O7-C1-H3-H2= 147.79    O7-C1-H4-H2=-147.79    O7-C1-H4-H3=  91.93
     O7-H3-H4-H2=-106.99    O7-C5-C1-H2= 180.      O7-C5-C1-H3=  58.89
     O7-C5-H2-H3=  32.82    O7-C5-C1-H4= -58.89    O7-C5-H2-H4= -32.83
     O7-C5-H4-H3=  92.39    O6-O7-C1-H2=  0.       O6-O7-C1-H3=-126.21
     O7-O6-H2-H3=  29.51    O6-O7-C1-H4= 126.21    O7-O6-H2-H4= -29.51
     O6-O7-H3-H4=  86.02    O7-C5-O6-C1= 180.      O7-C5-O6-H2=-180.
     H8-C5-C1-H2= 180.      H8-C5-C1-H3=  58.89    H8-C5-H2-H3=  32.82
     H8-C5-C1-H4= -58.89    H8-C5-H2-H4= -32.83    H8-C5-H4-H3= 106.39
     H8-O6-C1-H2= 180.      H8-O6-C1-H3=  68.94    H8-O6-H2-H3=  29.51
     H8-O6-C1-H4= -68.94    H8-O6-H2-H4= -29.52    H8-C5-O6-C1= 180.
     H8-C5-O6-H2=-180.      H8-O7-C1-H2=  0.       H8-O7-C1-H3=-126.21
     H8-O7-H3-H2=  72.83    H8-O7-C1-H4= 126.21    H8-O7-H4-H2= -72.83
     H8-O7-H3-H4= 129.4     H8-O7-C5-C1= 180.      H8-O7-C5-H2=-180.
     H8-O7-C5-H3=-155.5     H8-O7-C5-H4= 155.5     H8-O7-O6-C1= 180.
     H8-O7-O6-H2=-180.      H8-O7-C5-O6=  0.   

 Internal coordinates for the vibrationally average structure at 0K (Sz)
                           Interatomic distances:
                    1          2          3          4          5
     1  C    0.000000
     2  H    1.065502   0.000000
     3  H    1.062833   1.737880   0.000000
     4  H    1.062830   1.737874   1.711194   0.000000
     5  C    1.506114   2.122617   2.122929   2.122923   0.000000
     6  O    2.417288   2.578304   3.098222   3.098191   1.203106
     7  O    2.372825   3.280538   2.635652   2.635684   1.358847
     8  H    3.196732   3.986709   3.510633   3.510651   1.881800
                    6          7          8
     6  O    0.000000
     7  O    2.245481   0.000000
     8  H    2.285666   0.964091   0.000000
                           Interatomic angles:
       H2-C1-H3=109.4806       H2-C1-H4=109.4803       H3-C1-H4=107.2237
       H2-H4-H3= 60.5068       H2-C1-C5=110.078        H3-C1-C5=110.2641
       H3-H2-C5= 65.8459       H4-C1-C5=110.2638       H4-H2-C5= 65.8457
       H3-H4-C5= 66.2326       H2-C1-O6= 86.3167       H3-C1-O6=120.7356
       H3-H2-O6= 89.5595       H4-C1-O6=120.7332       H4-H2-O6= 89.5584
       C1-C5-O6=125.9469       H2-C5-O6= 97.8172       H3-C5-O6=135.52
       H4-C5-O6=135.5174       H2-C1-O7=142.2169       H3-C1-O7= 92.1219
       H2-H3-O7= 94.9787       H4-C1-O7= 92.1238       H2-H4-O7= 94.9778
       H4-H3-O7= 71.0583       C1-C5-O7=111.7304       H2-C5-O7=139.8601
       H3-C5-O7= 95.9031       H4-C5-O7= 95.905        C1-O7-O6= 63.0521
       H2-O6-O7= 85.4036       H3-O7-O6= 78.3517       H4-O7-O6= 78.35
       O6-C5-O7=122.3227       C1-C5-H8=141.0701       H2-C5-H8=169.1998
       H3-C5-H8=122.3607       H4-C5-H8=122.3621       C1-O6-H8= 85.5964
       H2-O6-H8=109.9523       O6-C5-H8= 92.983        C1-O7-H8=143.112
       H3-O7-H8=151.0832       H4-O7-H8=151.0811       C5-O7-H8=106.9814
       O6-O7-H8= 80.0599
                              Dihedral angles:
     H4-C1-H3-H2=-118.69    C5-C1-H3-H2= 121.25    C5-C1-H4-H2=-121.25
     C5-C1-H4-H3= 120.07    C5-H2-H4-H3=  75.31    O6-C1-H3-H2=  97.53
     O6-C1-H4-H2= -97.53    O6-C1-H4-H3= 143.79    O6-H2-H4-H3=  89.75
     O6-C5-C1-H2=  0.       O6-C5-C1-H3=-120.9     O6-C5-H2-H3=-147.35
     O6-C5-C1-H4= 120.89    O6-C5-H2-H4= 147.34    O6-C5-H4-H3=-116.65
     O7-C1-H3-H2= 148.43    O7-C1-H4-H2=-148.43    O7-C1-H4-H3=  92.88
     O7-H3-H4-H2=-107.43    O7-C5-C1-H2= 180.      O7-C5-C1-H3=  59.1
     O7-C5-H2-H3=  32.65    O7-C5-C1-H4= -59.11    O7-C5-H2-H4= -32.66
     O7-C5-H4-H3=  92.61    O6-O7-C1-H2=  0.       O6-O7-C1-H3=-126.34
     O7-O6-H2-H3=  29.49    O6-O7-C1-H4= 126.33    O7-O6-H2-H4= -29.5
     O6-O7-H3-H4=  85.94    O7-C5-O6-C1= 180.      O7-C5-O6-H2=-180.
     H8-C5-C1-H2= 180.      H8-C5-C1-H3=  59.1     H8-C5-H2-H3=  32.65
     H8-C5-C1-H4= -59.11    H8-C5-H2-H4= -32.66    H8-C5-H4-H3= 106.2
     H8-O6-C1-H2= 180.      H8-O6-C1-H3=  69.48    H8-O6-H2-H3=  29.49
     H8-O6-C1-H4= -69.48    H8-O6-H2-H4= -29.5     H8-C5-O6-C1= 180.
     H8-C5-O6-H2=-180.      H8-O7-C1-H2=  0.       H8-O7-C1-H3=-126.34
     H8-O7-H3-H2=  71.94    H8-O7-C1-H4= 126.33    H8-O7-H4-H2= -71.94
     H8-O7-H3-H4= 128.41    H8-O7-C5-C1= 180.      H8-O7-C5-H2=-180.
     H8-O7-C5-H3=-156.1     H8-O7-C5-H4= 156.1     H8-O7-O6-C1= 180.
     H8-O7-O6-H2=-180.      H8-O7-C5-O6=  0.   

 Internal coordinates for the vibr. average structure at 298.15K (Sa)
                           Interatomic distances:
                    1          2          3          4          5
     1  C    0.000000
     2  H    0.938310   0.000000
     3  H    0.898750   1.452927   0.000000
     4  H    0.898736   1.452909   1.431352   0.000000
     5  C    1.507447   2.060047   2.048037   2.048026   0.000000
     6  O    2.409473   2.564944   3.003773   3.003738   1.201576
     7  O    2.383016   3.193391   2.642669   2.642693   1.357550
     8  H    3.201613   3.912108   3.512071   3.512083   1.879006
                    6          7          8
     6  O    0.000000
     7  O    2.242983   0.000000
     8  H    2.283619   0.960819   0.000000
                           Interatomic angles:
       H2-C1-H3=104.5184       H2-C1-H4=104.5177       H3-C1-H4=105.5579
       H2-H4-H3= 60.4904       H2-C1-C5=112.6842       H3-C1-C5=114.2828
       H2-H3-C5= 69.7314       H4-C1-C5=114.2827       H2-H4-C5= 69.732
       H3-H4-C5= 69.547        H2-C1-O6= 88.6434       H3-C1-O6=123.8002
       H3-H2-O6= 92.5585       H4-C1-O6=123.7978       H4-H2-O6= 92.5574
       H3-H4-O6= 76.2175       C1-C5-O6=125.2228       H2-C5-O6=100.3727
       H3-C5-O6=133.4439       H4-C5-O6=133.4416       H2-C1-O7=144.4519
       H3-C1-O7= 96.6654       H2-H3-O7= 98.2586       H4-C1-O7= 96.6675
       H2-H4-O7= 98.2581       H4-H3-O7= 74.2882       C1-C5-O7=112.4569
       H2-C5-O7=137.307        H3-C5-O7= 99.7982       H4-C5-O7= 99.8001
       C1-O7-O6= 62.693        H2-O6-O7= 82.9503       H3-O7-O6= 75.3812
       H4-O7-O6= 75.3797       O6-C5-O7=122.3203       C1-C5-H8=141.7246
       H2-C5-H8=166.5747       H3-C5-H8=126.7917       H4-C5-H8=126.7931
       C1-O6-H8= 85.9869       H2-O6-H8=107.4387       H3-O6-H8= 82.0269
       H4-O6-H8= 82.0281       O6-C5-H8= 93.0526       C1-O7-H8=142.8176
       H3-O7-H8=150.6812       H4-O7-H8=150.6793       C5-O7-H8=107.0422
       O6-O7-H8= 80.1245
                              Dihedral angles:
     H4-C1-H3-H2=-109.93    C5-C1-H3-H2= 123.63    C5-C1-H4-H2=-123.63
     C5-C1-H4-H3= 126.44    C5-H4-H3-H2=  77.66    O6-C1-H3-H2=  98.28
     O6-C1-H4-H2= -98.27    O6-C1-H4-H3= 151.79    O6-H2-H4-H3=  91.45
     O6-C5-C1-H2=  0.       O6-C5-C1-H3=-119.12    O6-C5-H3-H2=  45.69
     O6-C5-C1-H4= 119.12    O6-C5-H4-H2= -45.69    O6-C5-H4-H3=-110.69
     O7-C1-H3-H2= 151.22    O7-C1-H4-H2=-151.22    O7-C1-H4-H3=  98.85
     O7-H3-H4-H2=-109.31    O7-C5-C1-H2= 180.      O7-C5-C1-H3=  60.88
     O7-C5-H3-H2=-158.69    O7-C5-C1-H4= -60.88    O7-C5-H4-H2= 158.69
     O7-C5-H4-H3=  93.69    O6-O7-C1-H2=  0.       O6-O7-C1-H3=-126.71
     O7-O6-H2-H3=  29.54    O6-O7-C1-H4= 126.7     O7-O6-H2-H4= -29.54
     O6-O7-H3-H4=  85.79    O7-C5-O6-C1= 180.      O7-C5-O6-H2=-180.
     O7-C5-O6-H3=-151.23    O7-C5-O6-H4= 151.23    H8-C5-C1-H2= 180.
     H8-C5-C1-H3=  60.88    H8-C5-H3-H2=-171.19    H8-C5-C1-H4= -60.88
     H8-C5-H4-H2= 171.19    H8-C5-H4-H3= 106.19    H8-O6-C1-H2= 180.
     H8-O6-C1-H3=  73.38    H8-O6-H2-H3=  29.54    H8-O6-C1-H4= -73.39
     H8-O6-H2-H4= -29.55    H8-O6-H4-H3=  88.03    H8-C5-O6-C1= 180.
     H8-C5-O6-H2=-180.      H8-C5-O6-H3=-151.23    H8-C5-O6-H4= 151.23
     H8-O7-C1-H2=  0.       H8-O7-C1-H3=-126.71    H8-O7-H3-H2=  63.97
     H8-O7-C1-H4= 126.7     H8-O7-H4-H2= -63.97    H8-O7-H3-H4= 120.06
     H8-O7-C5-C1= 180.      H8-O7-C5-H2=-180.      H8-O7-C5-H3=-159.23
     H8-O7-C5-H4= 159.23    H8-O7-O6-C1= 180.      H8-O7-O6-H2=-180.
     H8-O7-O6-H3=-163.75    H8-O7-O6-H4= 163.75    H8-O7-C5-O6=  0.

     ==================================================
      Vibrational Average of Electric-Field Properties
     ==================================================

 Electric dipole
 ---------------
 ------------------------------------------------------------------------
  Property at reference geometry, Unit: Debye
 ------------------------------------------------------------------------
     X=     0.6233     Y=    -0.4052     Z=     0.0000
 ------------------------------------------------------------------------
  Temperature:     0K, Unit: Debye
 ------------------------------------------------------------------------
     X=     0.6333     Y=    -0.3718     Z=     0.0000
 ------------------------------------------------------------------------
  Temperature:   298K, Unit: Debye
 ------------------------------------------------------------------------
     X=     0.6471     Y=    -0.2747     Z=    -0.0005

     ==================================================
                     Resonance Analysis
     ==================================================

 Thresholds
 ----------
 1-2 Fermi resonances:
     - Maximum Frequency difference (cm^-1)          :    200.000
     - Minimum Difference PT2 vs Variational (cm^-1) :      1.000
 2-2 Darling-Dennison resonances:
     - Maximum Frequency difference (cm^-1)          :    100.000
     - Minimum value of off-diagonal term (cm^-1)    :     10.000
 1-1 Darling-Dennison resonances:
     - Maximum Frequency difference (cm^-1)          :    100.000
     - Minimum value of off-diagonal term (cm^-1)    :     10.000

 Fermi resonances
 ----------------

     I      J  +   K   Freq. Diff.  Red. Cubic Const.  PT2-Variat.Diff.
      3      4     18       -7.679          30.960             31.704
      6     11     17      -19.872         -32.599              2.248
      6      8     18      -18.775          32.700              2.699
      9     14     14       13.796        -112.835            241.164
     10     14     16        9.259         -15.520              1.142
     11     12     18       -8.839          17.735              2.239
     14     15     18        1.727          10.672             39.328

     7 Active Fermi resonances over     7

 Darling-Dennison resonances
 ---------------------------

 (2-2)  I      J      K      L    Freq. Diff.    Darl. Denn.
         2      2      3      3      88.30898           -45.928
         6      6      7      7      11.70201           -13.635
         7      7      8      8      96.51257           -16.206

     3 Active 2-2 Darling-Dennison resonances over     3

 (1-1)  I      J                  Freq. Diff.    Darl. Denn.
         8      9                    72.59513            19.032

     1 Active 1-1 Darling-Dennison resonances over     1

     ==================================================
                     Anharmonic X Matrix
     ==================================================

 PT2 model: Deperturbed VPT2 (DVPT2)
 Ref.: V. Barone, J. Chem. Phys. 122, 1, 014108 (2005)

 Coriolis contributions to X Matrix (in cm^-1)
 ---------------------------------------------
                1             2             3             4             5
      1  0.000000D+00
      2  0.000000D+00  0.000000D+00
      3  0.000000D+00  0.272186D-02  0.000000D+00
      4  0.131133D-05  0.584766D-03  0.628230D-03  0.000000D+00
      5  0.102375D-01  0.288127D-02  0.115986D-02  0.100853D-02  0.000000D+00
      6  0.491740D-04  0.748091D+00  0.667675D-01  0.393557D-01  0.261555D-03
      7  0.959802D-03  0.845582D-01  0.745761D+00  0.146527D-02  0.669719D-02
      8  0.277901D-01  0.146849D+00  0.306270D+00  0.133386D-01  0.618149D-01
      9  0.120476D+00  0.918622D-01  0.190906D+00  0.274381D-05  0.104182D+00
     10  0.316448D+00  0.199137D-01  0.481429D-01  0.228170D-01  0.412763D-01
     11  0.713556D-03  0.237384D+00  0.428211D-01  0.390108D+00  0.254885D+00
     12  0.416698D-01  0.809178D-01  0.295375D+00  0.195826D+00  0.107665D-01
     13  0.300113D-01  0.282200D-02  0.127638D-02  0.122662D-04  0.372378D-02
     14  0.108866D+01  0.542337D-01  0.208940D-01  0.132799D+00  0.370437D+00
     15  0.740543D-01  0.200488D-02  0.196958D-02  0.257083D-02  0.142075D+00
     16  0.894819D+00  0.870540D-01  0.473332D-01  0.242376D+00  0.295804D+00
     17  0.436579D-01  0.512731D-01  0.105786D+00  0.887952D-01  0.664850D-01
     18  0.452376D-01  0.893222D+00  0.298476D+00  0.128759D+02  0.275675D+00
                6             7             8             9            10
      6  0.000000D+00
      7  0.724367D-01  0.000000D+00
      8  0.939171D-01  0.906745D-01  0.000000D+00
      9  0.124610D+00  0.209619D-01  0.380456D-02  0.000000D+00
     10  0.383286D-01  0.501363D-02  0.897715D-02  0.000000D+00  0.000000D+00
     11  0.485433D-01  0.737276D-01  0.164867D+00  0.752483D-01  0.798090D-01
     12  0.105621D+00  0.651284D-01  0.154327D-01  0.144142D-01  0.335247D-02
     13  0.739187D-02  0.331759D-02  0.122156D-01  0.166732D-01  0.194707D-02
     14  0.133822D-01  0.607485D-01  0.533886D-02  0.641080D-01  0.386009D+00
     15  0.215677D-02  0.134136D-03  0.173625D-01  0.255911D-01  0.908532D-02
     16  0.177530D-01  0.138284D+00  0.188976D+00  0.371358D+00  0.117256D+00
     17  0.682355D-01  0.972369D-02  0.141119D-01  0.438360D-01  0.999710D-01
     18  0.400629D+00  0.421392D+00  0.530375D+00  0.394793D+00  0.136352D+00
               11            12            13            14            15
     11  0.000000D+00
     12  0.331534D-01  0.000000D+00
     13  0.366527D-01  0.292138D-02  0.000000D+00
     14  0.277062D-03  0.121812D+00  0.494134D-02  0.000000D+00
     15  0.719233D-02  0.548763D-01  0.170657D-02  0.875102D-01  0.000000D+00
     16  0.228601D-02  0.721030D-02  0.622432D-01  0.151391D-03  0.256084D-01
     17  0.411150D-01  0.265140D-01  0.166978D-02  0.204613D-02  0.169246D+00
     18  0.472437D+00  0.811961D+00  0.117797D+00  0.814844D-01  0.952832D-01
               16            17            18
     16  0.000000D+00
     17  0.947790D-01  0.000000D+00
     18  0.105959D+00  0.309745D+00  0.000000D+00

 3rd Deriv. contributions to X Matrix (in cm^-1)
 -----------------------------------------------
                1             2             3             4             5
      1 -0.178076D+03
      2 -0.274559D+00 -0.849497D+02
      3  0.274513D+00 -0.471065D+02 -0.652368D+02
      4  0.100250D+00 -0.996242D+02 -0.197707D+03 -0.408038D+02
      5  0.234645D+01  0.195416D+01 -0.674923D+00 -0.748069D+00 -0.190332D+02
      6  0.150101D+00  0.399556D+02  0.160888D+02  0.224383D+02 -0.176476D+00
      7  0.247873D+00  0.132748D+02  0.316097D+02  0.283727D+02 -0.529277D+00
      8  0.534915D+01  0.224155D+02  0.307922D+02  0.378560D+02 -0.147129D+01
      9  0.325658D+02  0.154422D+02  0.115921D+02  0.136709D+02 -0.358123D+01
     10  0.117676D+03  0.581318D+01  0.407328D+01  0.416121D+01 -0.521687D+01
     11  0.191709D+00  0.249323D+02  0.323226D+02  0.287412D+02  0.139503D+01
     12  0.167933D+02  0.466342D+02  0.288748D+02  0.320142D+02 -0.182677D+01
     13  0.888631D+01  0.791020D+00  0.104382D+01  0.280773D+00  0.909496D+00
     14  0.266964D+03  0.685576D+01  0.150480D+02  0.127506D+02  0.405587D+01
     15  0.293164D+02  0.127921D+01  0.472303D+00  0.544899D+00  0.113387D+00
     16  0.215669D+03  0.147090D+02  0.291343D+02  0.250156D+02  0.637725D+01
     17  0.179771D+02  0.322166D+02  0.146668D+02  0.175632D+02  0.123360D+01
     18  0.916119D+01  0.641227D+03  0.804834D+03  0.751707D+03  0.515290D+01
                6             7             8             9            10
      6 -0.636400D+01
      7 -0.443607D+01 -0.513258D+01
      8 -0.703462D+01 -0.430508D+01 -0.848249D+01
      9 -0.125122D+01 -0.384531D+01 -0.135695D+02 -0.416373D+01
     10 -0.167595D+01 -0.279891D+01 -0.101238D+02 -0.259309D+02 -0.183553D+02
     11 -0.118426D+02 -0.938503D+01 -0.127687D+02 -0.706780D+01 -0.105485D+01
     12 -0.139067D+02 -0.728884D+01 -0.204003D+02 -0.124776D+02 -0.164166D+02
     13 -0.415088D+00 -0.192235D+01 -0.135005D+02 -0.600406D+01 -0.113583D+02
     14 -0.362774D+01 -0.153722D+01 -0.147184D+01 -0.157644D+02 -0.557046D+02
     15 -0.167122D+00 -0.186755D+01 -0.579529D+01 -0.521035D+01 -0.168573D+02
     16 -0.996555D+01 -0.362453D+01 -0.110150D+02 -0.100166D+02 -0.323438D+02
     17 -0.401028D+01 -0.454467D+00 -0.109240D+02 -0.721863D+01 -0.111825D+02
     18 -0.277440D+03 -0.325599D+03 -0.813713D+02 -0.563226D+02 -0.378665D+02
               11            12            13            14            15
     11 -0.438779D+01
     12 -0.658596D+01 -0.783862D+01
     13 -0.485531D+00 -0.478355D+01 -0.476532D+01
     14 -0.725763D+01 -0.903813D+01 -0.575165D+01 -0.770119D+02
     15 -0.349962D+00 -0.324188D+01  0.947564D+00 -0.125347D+02 -0.144721D+01
     16 -0.133024D+02 -0.847725D+01 -0.389435D+01 -0.252271D+03 -0.121869D+02
     17 -0.425316D+01 -0.226705D+02 -0.246357D+01 -0.856918D+01 -0.315092D+01
     18 -0.224789D+03 -0.233881D+03 -0.446380D+00 -0.932082D+02 -0.619602D+01
               16            17            18
     16 -0.542026D+02
     17 -0.110654D+02 -0.364799D+01
     18 -0.171493D+03 -0.133295D+03 -0.275707D+04

 4th Deriv. contributions to X Matrix (in cm^-1)
 -----------------------------------------------
                1             2             3             4             5
      1  0.954275D+02
      2  0.485185D-01  0.567112D+02
      3  0.208086D+00  0.156500D+02  0.257660D+02
      4  0.176732D+00  0.510676D+02  0.657331D+02  0.115135D+02
      5 -0.347740D+01 -0.432444D+00  0.478310D+00  0.364755D+00  0.102334D+02
      6  0.834724D-01 -0.571412D+02 -0.244941D+02 -0.259359D+02 -0.159967D+00
      7 -0.268252D+00 -0.231566D+02 -0.489114D+02 -0.329672D+02  0.132355D-01
      8 -0.943927D+01 -0.260973D+02 -0.334826D+02 -0.284853D+02  0.112014D+01
      9 -0.433062D+02 -0.181945D+02 -0.160574D+02 -0.143242D+02 -0.546011D+00
     10 -0.125176D+03 -0.815375D+01 -0.402283D+01 -0.449167D+01  0.799040D+00
     11 -0.143553D+00 -0.282718D+02 -0.389658D+02 -0.346405D+02 -0.403973D+01
     12 -0.175534D+02 -0.510496D+02 -0.336215D+02 -0.350662D+02  0.828781D-01
     13 -0.111765D+02 -0.233682D+00  0.448042D+00  0.333616D+00  0.202835D+01
     14 -0.271415D+03 -0.752386D+01 -0.161007D+02 -0.137699D+02 -0.519189D+01
     15 -0.310297D+02 -0.116561D+01 -0.241263D+00 -0.429002D+00 -0.610203D+01
     16 -0.221118D+03 -0.156764D+02 -0.291547D+02 -0.254799D+02 -0.751271D+01
     17 -0.187387D+02 -0.320615D+02 -0.146943D+02 -0.174298D+02 -0.205494D+01
     18 -0.119755D+02 -0.645182D+03 -0.798242D+03 -0.764115D+03 -0.658885D+01
                6             7             8             9            10
      6  0.118633D+01
      7  0.131070D+01  0.346547D+00
      8  0.236333D+01  0.172210D+01  0.231815D+01
      9  0.787492D+00  0.184319D+01  0.410197D+01  0.114399D+01
     10  0.775938D+00  0.132401D+01  0.529430D+01  0.164858D+02  0.126087D+02
     11  0.752892D+01  0.439238D+01  0.933691D+01  0.554080D+01 -0.229399D+00
     12  0.696504D+01  0.735957D+01  0.154888D+02  0.100291D+02  0.131961D+02
     13  0.227823D+00  0.690292D-01  0.512318D+01  0.251460D+01  0.750464D+01
     14  0.234328D+01  0.115894D+01  0.590897D+01  0.120379D+02  0.384739D+02
     15  0.232062D+00  0.150976D+00  0.123619D+01  0.400736D+01  0.141450D+02
     16  0.645565D+01  0.182294D+01  0.951765D+01  0.102383D+02  0.312922D+02
     17  0.421182D+01  0.400536D+01  0.845579D+01  0.679019D+01  0.101388D+02
     18  0.276008D+03  0.327271D+03  0.804135D+02  0.574890D+02  0.368393D+02
               11            12            13            14            15
     11  0.358261D+01
     12  0.675552D+01  0.695605D+01
     13 -0.834087D+00  0.277735D+01  0.183097D+01
     14  0.746024D+01  0.929897D+01  0.390471D+01  0.727365D+02
     15  0.319679D+00  0.315305D+01  0.269483D+01  0.127844D+02  0.160566D+01
     16  0.145100D+02  0.120806D+02  0.224915D+01  0.242607D+03  0.106743D+02
     17  0.496617D+01  0.194350D+02  0.198567D+00  0.916027D+01  0.390414D+01
     18  0.220924D+03  0.239576D+03  0.000000D+00  0.103878D+03  0.305395D+01
               16            17            18
     16  0.532608D+02
     17  0.121197D+02  0.417930D+01
     18  0.169804D+03  0.136262D+03  0.275527D+04

 Total Anharmonic X Matrix (in cm^-1)
 ------------------------------------
                1             2             3             4             5
      1 -0.826489D+02
      2 -0.226040D+00 -0.282385D+02
      3  0.482599D+00 -0.314537D+02 -0.394708D+02
      4  0.276983D+00 -0.485560D+02 -0.131973D+03 -0.292903D+02
      5 -0.112071D+01  0.152460D+01 -0.195453D+00 -0.382305D+00 -0.879980D+01
      6  0.233623D+00 -0.164374D+02 -0.833860D+01 -0.345827D+01 -0.336181D+00
      7 -0.194195D-01 -0.979733D+01 -0.165559D+02 -0.459304D+01 -0.509344D+00
      8 -0.406233D+01 -0.353495D+01 -0.238415D+01  0.938402D+01 -0.289338D+00
      9 -0.106199D+02 -0.266047D+01 -0.427437D+01 -0.653246D+00 -0.402306D+01
     10 -0.718397D+01 -0.232066D+01  0.985965D-01 -0.307644D+00 -0.437656D+01
     11  0.488697D-01 -0.310215D+01 -0.660036D+01 -0.550923D+01 -0.238982D+01
     12 -0.718455D+00 -0.433445D+01 -0.445135D+01 -0.285621D+01 -0.173313D+01
     13 -0.226021D+01  0.560160D+00  0.149313D+01  0.614401D+00  0.294157D+01
     14 -0.336292D+01 -0.613861D+00 -0.103179D+01 -0.886498D+00 -0.765578D+00
     15 -0.163924D+01  0.115605D+00  0.233009D+00  0.118468D+00 -0.584656D+01
     16 -0.455470D+01 -0.880378D+00  0.268805D-01 -0.221945D+00 -0.839655D+00
     17 -0.717937D+00  0.206287D+00  0.782808D-01  0.222209D+00 -0.754857D+00
     18 -0.276905D+01 -0.306139D+01  0.689103D+01  0.468055D+00 -0.116028D+01
                6             7             8             9            10
      6 -0.517767D+01
      7 -0.305293D+01 -0.478603D+01
      8 -0.457737D+01 -0.249230D+01 -0.616434D+01
      9 -0.339118D+00 -0.198115D+01 -0.946376D+01 -0.301974D+01
     10 -0.861686D+00 -0.146988D+01 -0.482057D+01 -0.944513D+01 -0.574657D+01
     11 -0.426517D+01 -0.491892D+01 -0.326696D+01 -0.145176D+01 -0.120444D+01
     12 -0.683604D+01  0.135857D+00 -0.489602D+01 -0.243405D+01 -0.321711D+01
     13 -0.179874D+00 -0.185001D+01 -0.836507D+01 -0.347278D+01 -0.385170D+01
     14 -0.127107D+01 -0.317533D+00  0.444246D+01 -0.366244D+01 -0.168447D+02
     15  0.670973D-01 -0.171644D+01 -0.454174D+01 -0.117740D+01 -0.270324D+01
     16 -0.349215D+01 -0.166331D+01 -0.130840D+01  0.593022D+00 -0.934354D+00
     17  0.269779D+00  0.356062D+01 -0.245415D+01 -0.384596D+00 -0.943719D+00
     18 -0.103153D+01  0.209315D+01 -0.427398D+00  0.156118D+01 -0.890863D+00
               11            12            13            14            15
     11 -0.805184D+00
     12  0.202709D+00 -0.882572D+00
     13 -0.128296D+01 -0.200328D+01 -0.293434D+01
     14  0.202892D+00  0.382648D+00 -0.184200D+01 -0.427531D+01
     15 -0.230903D-01 -0.339535D-01  0.364410D+01  0.337210D+00  0.158449D+00
     16  0.120992D+01  0.361052D+01 -0.158295D+01 -0.966414D+01 -0.148703D+01
     17  0.754119D+00 -0.320900D+01 -0.226334D+01  0.593141D+00  0.922467D+00
     18 -0.339335D+01  0.650678D+01 -0.328583D+00  0.107510D+02 -0.304679D+01
               16            17            18
     16 -0.941806D+00
     17  0.114915D+01  0.531313D+00
     18 -0.158346D+01  0.327596D+01 -0.179970D+01

     ==================================================
            Deperturbed terms for anharmonicity
     ==================================================

 Variational Matrix Definition
 -----------------------------
 NOTE: Types of resonances:
       1-2: Fermi resonance           - TERM < v+1_i | H | v+2_j>
       2-2: Darling-Dennison 2-2 res. - TERM < v+1_i+1_j | H | v+1_k+1_l>
       1-1: Darling-Dennison 1-1 res. - TERM < v+1_i | H | v+1_j>
       1-3: Darling-Dennison 1-3 res. - TERM < v+1_i | H | v+1_j+1_k+1_l>

 Type |     State 1   |  Off-Diagonal |     State 2
    -- --           -- --           -- --
  1-2 |        14(1)  |               |        15(1)     18(1)
      |   0.64262D+03 |   0.37732D+01 |   0.65343D+03
    -- --           -- --           -- --
  1-2 |        11(1)  |               |        12(1)     18(1)
      |   0.10450D+04 |   0.62704D+01 |   0.10680D+04
    -- --           -- --           -- --
  1-2 |        10(1)  |               |        14(1)     16(1)
      |   0.11738D+04 |  -0.54873D+01 |   0.11640D+04
    -- --           -- --           -- --
  1-2 |         9(1)  |               |        14(2)
      |   0.13067D+04 |  -0.28209D+02 |   0.12767D+04
    -- --           -- --           -- --
  1-1 |         9(1)  |               |         8(1)
      |   0.13067D+04 |   0.95160D+01 |   0.13784D+04
    -- --           -- --           -- --
  2-2 |         8(2)  |               |         7(2)
      |   0.27445D+04 |  -0.81031D+01 |   0.28472D+04
    -- --           -- --           -- --
  2-2 |         7(2)  |               |         6(2)
      |   0.28472D+04 |  -0.68175D+01 |   0.28478D+04
    -- --           -- --           -- --
  1-2 |         6(1)  |               |        11(1)     17(1)
      |   0.14291D+04 |  -0.11525D+02 |   0.14691D+04
    -- --           -- --           -- --
  1-2 |         6(1)  |               |         8(1)     18(1)
      |   0.14291D+04 |   0.11561D+02 |   0.14542D+04
    -- --           -- --           -- --
  1-2 |         3(1)  |               |         4(1)     18(1)
      |   0.29677D+04 |   0.10946D+02 |   0.30044D+04
    -- --           -- --           -- --
  2-2 |         3(2)  |               |         2(2)
      |   0.58565D+04 |  -0.22964D+02 |   0.60856D+04

 Projection of DVPT2 states on New Variational States
 ----------------------------------------------------

 NOTE: Only states with projection lower than 80% are shown below.

   ## LOW CHANGES WITH RESPECT TO THE DEPERTURBED STATES (<=50%) ##
  State |9(1)>          has overlap of 71.0% with state  10
  State |14(2)>         has overlap of 72.9% with state  33
  State |6(2)>          has overlap of 50.1% with state 109

   ## HIGH CHANGES WITH RESPECT TO THE DEPERTURBED STATES ##
  State |7(2)>          has overlap of 49.9% with state  96

 Vibrational Energies (cm^-1)
 ----------------------------
   Mode(n)                    E(depert.)    E(after diag.)
      3(1)                       2967.721        2964.701
      6(1)                       1429.088        1422.102
      8(1)                       1378.432        1379.817
      9(1)                       1306.710        1322.474
     10(1)                       1173.848        1176.302
     11(1)                       1044.978        1043.384
     14(1)                        642.622         641.435
      2(2)                       6085.586        6087.866
      3(2)                       5856.500        5854.221
      6(2)                       2847.821        2841.047
      7(2)                       2847.228        2854.640
      8(2)                       2744.535        2743.897
     14(2)                       1276.694        1259.546
     16(1)      14(1)            1164.035        1161.580
     17(1)      11(1)            1469.133        1472.774
     18(1)       4(1)            3004.378        3007.397
     18(1)       8(1)            1454.214        1457.560
     18(1)      12(1)            1068.049        1069.643
     18(1)      15(1)             653.431         654.618

     ==================================================
                Anharmonic Zero Point Energy
     ==================================================

 Anharmonic X0 Term
 ------------------
 U term         : cm-1 =    -0.21934 ; Kcal/mol =  -0.001 ; KJ/mol =  -0.003
 Coriolis       : cm-1 =    -2.28277 ; Kcal/mol =  -0.007 ; KJ/mol =  -0.027
 Anharmonic     : cm-1 =    -2.92999 ; Kcal/mol =  -0.008 ; KJ/mol =  -0.035
 Total X0       : cm-1 =    -5.43211 ; Kcal/mol =  -0.016 ; KJ/mol =  -0.065

 Anharmonic Zero Point Energy
 ----------------------------
 Harmonic       : cm-1 = 13574.11293 ; Kcal/mol =  38.810 ; KJ/mol = 162.382
 Anharmonic Pot.: cm-1 =  -186.03333 ; Kcal/mol =  -0.532 ; KJ/mol =  -2.225
 Watson+Coriolis: cm-1 =     5.11717 ; Kcal/mol =   0.015 ; KJ/mol =   0.061
 Total Anharm   : cm-1 = 13393.19678 ; Kcal/mol =  38.293 ; KJ/mol = 160.218

     ==================================================
          Vibrational Energies at Anharmonic Level
     ==================================================

 Units: Vibrational energies and rotational constants in cm^-1.
 NOTE: Transition energies are given with respect to the ground state.

 NOTE: H and L indicates if there is a high or low overlap with the
       state to which it is assigned. In absence of indicator, the state
       is unchanged or nearly unchanged after variational correction.

 Reference Data
 --------------
                              E(harm)  E(anharm)     Aa(x)      Ba(y)      Ca(z)
 Equilibrium Geometry                              0.381292   0.317205   0.178875
 Ground State                13574.113 13393.197   0.378807   0.315125   0.177514

 Fundamental Bands
 -----------------
     Mode(n)      Status      E(harm)  E(anharm)     Aa(x)      Ba(y)      Ca(z)
        1(1)      active      3764.146  3579.741   0.379002   0.314776   0.177453
        2(1)      active      3189.795  3071.032   0.378673   0.314864   0.177428
        3(1)      active      3145.640  2964.701   0.378550   0.315036   0.177469
        4(1)      active      3080.437  2927.700   0.378520   0.314957   0.177470
        5(1)      active      1843.664  1815.936   0.377690   0.314391   0.177098
        6(1)      active      1466.397  1422.102   0.378736   0.316978   0.177562
        7(1)      active      1460.546  1428.400   0.378541   0.315374   0.178293
        8(1)      active      1412.290  1379.817   0.378458   0.313441   0.176449
 H      9(1)      active      1339.694  1322.474   0.378390   0.314410   0.177126
       10(1)      active      1215.980  1176.302   0.378236   0.315111   0.177110
       11(1)      active      1064.083  1043.384   0.378639   0.314521   0.177462
       12(1)      active      1000.040   985.333   0.378506   0.314623   0.177221
       13(1)      active       875.385   859.502   0.378508   0.313864   0.177023
       14(1)      active       662.949   641.435   0.377674   0.315575   0.177508
       15(1)      active       588.340   580.268   0.378543   0.315449   0.177650
       16(1)      active       543.772   531.076   0.378671   0.314748   0.177632
       17(1)      active       422.186   423.401   0.379204   0.315380   0.177026
       18(1)      active        72.882    76.210   0.379008   0.314586   0.177563

 Overtones
 ---------
     Mode(n)                  E(harm)  E(anharm)     Aa(x)      Ba(y)      Ca(z)
        1(2)                  7528.291  6994.185   0.379198   0.314428   0.177392
        2(2)                  6379.589  6087.866   0.378539   0.314604   0.177342
        3(2)                  6291.281  5854.221   0.378293   0.314947   0.177424
        4(2)                  6160.875  5796.819   0.378233   0.314790   0.177425
        5(2)                  3687.328  3614.273   0.376573   0.313658   0.176681
 H      6(2)                  2932.794  2841.047   0.378665   0.318832   0.177609
 L      7(2)                  2921.092  2854.640   0.378276   0.315624   0.179071
        8(2)                  2824.579  2743.897   0.378108   0.311757   0.175383
        9(2)                  2679.389  2607.382   0.377974   0.313696   0.176737
       10(2)                  2431.959  2336.202   0.377665   0.315097   0.176706
       11(2)                  2128.166  2088.346   0.378472   0.313917   0.177409
       12(2)                  2000.080  1968.900   0.378205   0.314122   0.176927
       13(2)                  1750.770  1713.135   0.378210   0.312603   0.176531
 H     14(2)                  1325.899  1259.546   0.376542   0.316026   0.177502
       15(2)                  1176.680  1160.853   0.378279   0.315773   0.177785
       16(2)                  1087.543  1060.269   0.378536   0.314372   0.177749
       17(2)                   844.372   847.864   0.379601   0.315634   0.176537
       18(2)                   145.764   148.820   0.379209   0.314048   0.177611

 Combination Bands
 -----------------
     Mode(n)     Mode(n)      E(harm)  E(anharm)     Aa(x)      Ba(y)      Ca(z)
        2(1)        1(1)      6953.940  6650.547   0.378869   0.314516   0.177367
        3(1)        1(1)      6909.786  6547.945   0.378745   0.314688   0.177408
        3(1)        2(1)      6335.435  6007.299   0.378416   0.314776   0.177383
        4(1)        1(1)      6844.583  6507.718   0.378715   0.314609   0.177409
        4(1)        2(1)      6270.232  5950.175   0.378386   0.314697   0.177383
        4(1)        3(1)      6226.078  5763.447   0.378263   0.314869   0.177425
        5(1)        1(1)      5607.810  5394.557   0.377886   0.314043   0.177036
        5(1)        2(1)      5033.459  4888.492   0.377556   0.314131   0.177011
        5(1)        3(1)      4989.304  4783.462   0.377433   0.314303   0.177052
        5(1)        4(1)      4924.101  4743.254   0.377403   0.314224   0.177053
        6(1)        1(1)      5230.543  5009.063   0.378931   0.316630   0.177500
        6(1)        2(1)      4656.192  4483.682   0.378602   0.316718   0.177475
        6(1)        3(1)      4612.037  4388.470   0.378479   0.316890   0.177516
        6(1)        4(1)      4546.834  4353.330   0.378449   0.316811   0.177517
        6(1)        5(1)      3310.061  3244.688   0.377619   0.316245   0.177145
        7(1)        1(1)      5224.692  5008.122   0.378737   0.315026   0.178232
        7(1)        2(1)      4650.341  4489.634   0.378408   0.315114   0.178206
        7(1)        3(1)      4606.186  4379.565   0.378284   0.315286   0.178247
        7(1)        4(1)      4540.983  4351.507   0.378254   0.315207   0.178248
        7(1)        5(1)      3304.210  3243.827   0.377425   0.314641   0.177876
        7(1)        6(1)      2926.943  2854.435   0.378470   0.317228   0.178340
        8(1)        1(1)      5176.435  4954.111   0.378653   0.313092   0.176388
        8(1)        2(1)      4602.084  4445.929   0.378324   0.313180   0.176362
        8(1)        3(1)      4557.930  4343.769   0.378201   0.313352   0.176403
        8(1)        4(1)      4492.727  4315.516   0.378171   0.313273   0.176404
        8(1)        5(1)      3255.954  3194.079   0.377341   0.312707   0.176032
        8(1)        6(1)      2878.687  2802.943   0.378387   0.315294   0.176496
        8(1)        7(1)      2872.836  2804.340   0.378192   0.313690   0.177227
        9(1)        1(1)      5103.840  4875.832   0.378586   0.314062   0.177065
        9(1)        2(1)      4529.489  4375.082   0.378257   0.314150   0.177039
        9(1)        3(1)      4485.335  4270.157   0.378133   0.314322   0.177080
        9(1)        4(1)      4420.132  4233.757   0.378103   0.314243   0.177081
        9(1)        5(1)      3183.358  3118.623   0.377273   0.313677   0.176709
        9(1)        6(1)      2806.091  2735.459   0.378319   0.316264   0.177173
        9(1)        7(1)      2800.240  2733.129   0.378125   0.314660   0.177904
        9(1)        8(1)      2751.984  2675.679   0.378041   0.312726   0.176060
       10(1)        1(1)      4980.125  4746.405   0.378432   0.314762   0.177049
       10(1)        2(1)      4405.774  4242.559   0.378102   0.314850   0.177024
       10(1)        3(1)      4361.620  4141.667   0.377979   0.315022   0.177065
       10(1)        4(1)      4296.417  4101.240   0.377949   0.314943   0.177066
       10(1)        5(1)      3059.644  2985.407   0.377119   0.314377   0.176693
       10(1)        6(1)      2682.376  2602.074   0.378165   0.316964   0.177157
       10(1)        7(1)      2676.525  2600.778   0.377971   0.315360   0.177888
       10(1)        8(1)      2628.269  2547.459   0.377887   0.313427   0.176045
       10(1)        9(1)      2555.674  2471.113   0.377819   0.314396   0.176721
       11(1)        1(1)      4828.229  4624.768   0.378835   0.314172   0.177401
       11(1)        2(1)      4253.878  4112.908   0.378505   0.314260   0.177375
       11(1)        3(1)      4209.723  4006.099   0.378382   0.314432   0.177416
       11(1)        4(1)      4144.521  3967.169   0.378352   0.314353   0.177417
       11(1)        5(1)      2907.747  2858.524   0.377522   0.313787   0.177045
       11(1)        6(1)      2530.480  2469.801   0.378568   0.316374   0.177509
       11(1)        7(1)      2524.629  2468.459   0.378374   0.314770   0.178240
       11(1)        8(1)      2476.373  2420.143   0.378290   0.312837   0.176396
       11(1)        9(1)      2403.778  2350.237   0.378223   0.313806   0.177073
       11(1)       10(1)      2280.063  2217.621   0.378068   0.314507   0.177057
       12(1)        1(1)      4764.186  4564.355   0.378702   0.314275   0.177159
       12(1)        2(1)      4189.835  4052.030   0.378372   0.314363   0.177134
       12(1)        3(1)      4145.680  3948.602   0.378249   0.314535   0.177175
       12(1)        4(1)      4080.477  3910.176   0.378219   0.314456   0.177176
       12(1)        5(1)      2843.704  2799.535   0.377389   0.313890   0.176804
       12(1)        6(1)      2466.437  2407.585   0.378435   0.316477   0.177268
       12(1)        7(1)      2460.586  2413.868   0.378241   0.314873   0.177999
       12(1)        8(1)      2412.330  2358.868   0.378157   0.312939   0.176155
       12(1)        9(1)      2339.734  2289.609   0.378090   0.313909   0.176832
       12(1)       10(1)      2216.019  2155.963   0.377935   0.314609   0.176816
       12(1)       11(1)      2064.123  2030.513   0.378338   0.314019   0.177168
       13(1)        1(1)      4639.531  4436.983   0.378704   0.313515   0.176962
       13(1)        2(1)      4065.180  3931.094   0.378375   0.313603   0.176936
       13(1)        3(1)      4021.025  3828.716   0.378251   0.313775   0.176977
       13(1)        4(1)      3955.822  3787.816   0.378221   0.313696   0.176978
       13(1)        5(1)      2719.049  2678.379   0.377392   0.313130   0.176606
       13(1)        6(1)      2341.782  2288.410   0.378437   0.315717   0.177070
       13(1)        7(1)      2335.931  2286.052   0.378243   0.314113   0.177801
       13(1)        8(1)      2287.675  2229.569   0.378159   0.312180   0.175957
       13(1)        9(1)      2215.080  2162.739   0.378092   0.313149   0.176634
       13(1)       10(1)      2091.365  2029.498   0.377938   0.313850   0.176619
       13(1)       11(1)      1939.468  1903.197   0.378341   0.313260   0.176970
       13(1)       12(1)      1875.425  1842.831   0.378208   0.313362   0.176729
       14(1)        1(1)      4427.095  4219.001   0.377870   0.315227   0.177447
       14(1)        2(1)      3852.744  3713.040   0.377541   0.315315   0.177422
       14(1)        3(1)      3808.590  3609.311   0.377417   0.315487   0.177463
       14(1)        4(1)      3743.387  3569.436   0.377387   0.315408   0.177464
       14(1)        5(1)      2506.613  2457.793   0.376557   0.314842   0.177092
       14(1)        6(1)      2129.346  2070.439   0.377603   0.317429   0.177556
       14(1)        7(1)      2123.495  2070.705   0.377409   0.315825   0.178287
       14(1)        8(1)      2075.239  2025.497   0.377325   0.313891   0.176443
       14(1)        9(1)      2002.644  1945.670   0.377258   0.314861   0.177120
       14(1)       10(1)      1878.929  1799.625   0.377103   0.315561   0.177104
       14(1)       11(1)      1727.033  1687.803   0.377507   0.314971   0.177456
       14(1)       12(1)      1662.989  1628.337   0.377374   0.315074   0.177215
       14(1)       13(1)      1538.335  1500.282   0.377376   0.314314   0.177017
       15(1)        1(1)      4352.486  4158.370   0.378738   0.315101   0.177589
       15(1)        2(1)      3778.135  3651.416   0.378409   0.315189   0.177563
       15(1)        3(1)      3733.980  3548.222   0.378286   0.315360   0.177604
       15(1)        4(1)      3668.777  3508.087   0.378256   0.315281   0.177605
       15(1)        5(1)      2432.004  2390.358   0.377426   0.314716   0.177233
       15(1)        6(1)      2054.737  2009.423   0.378472   0.317303   0.177697
       15(1)        7(1)      2048.886  2006.952   0.378277   0.315699   0.178428
       15(1)        8(1)      2000.630  1954.158   0.378193   0.313765   0.176584
       15(1)        9(1)      1928.035  1885.801   0.378126   0.314734   0.177261
       15(1)       10(1)      1804.320  1751.413   0.377972   0.315435   0.177246
       15(1)       11(1)      1652.423  1625.223   0.378375   0.314845   0.177597
       15(1)       12(1)      1588.380  1565.567   0.378242   0.314947   0.177356
       15(1)       13(1)      1463.725  1443.414   0.378244   0.314188   0.177158
       15(1)       14(1)      1251.290  1223.228   0.377410   0.315899   0.177644
       16(1)        1(1)      4307.917  4106.263   0.378867   0.314400   0.177571
       16(1)        2(1)      3733.566  3601.228   0.378537   0.314488   0.177545
       16(1)        3(1)      3689.412  3498.824   0.378414   0.314660   0.177587
       16(1)        4(1)      3624.209  3458.554   0.378384   0.314581   0.177587
       16(1)        5(1)      2387.436  2346.173   0.377554   0.314015   0.177215
       16(1)        6(1)      2010.168  1956.672   0.378600   0.316602   0.177679
       16(1)        7(1)      2004.317  1957.813   0.378406   0.314998   0.178410
       16(1)        8(1)      1956.061  1908.200   0.378322   0.313064   0.176566
       16(1)        9(1)      1883.466  1838.380   0.378255   0.314034   0.177243
       16(1)       10(1)      1759.751  1703.990   0.378100   0.314734   0.177228
       16(1)       11(1)      1607.855  1577.264   0.378504   0.314144   0.177579
       16(1)       12(1)      1543.811  1520.020   0.378371   0.314247   0.177338
       16(1)       13(1)      1419.157  1388.995   0.378373   0.313487   0.177140
       16(1)       14(1)      1206.721  1161.580   0.377539   0.315199   0.177626
       16(1)       15(1)      1132.112  1109.858   0.378407   0.315073   0.177767
       17(1)        1(1)      4186.332  4002.424   0.379400   0.315031   0.176965
       17(1)        2(1)      3611.981  3494.639   0.379070   0.315119   0.176939
       17(1)        3(1)      3567.826  3391.200   0.378947   0.315291   0.176981
       17(1)        4(1)      3502.623  3351.323   0.378917   0.315212   0.176981
       17(1)        5(1)      2265.850  2238.582   0.378087   0.314646   0.176609
       17(1)        6(1)      1888.583  1852.759   0.379133   0.317233   0.177073
       17(1)        7(1)      1882.732  1855.361   0.378938   0.315629   0.177804
       17(1)        8(1)      1834.476  1799.379   0.378855   0.313696   0.175960
       17(1)        9(1)      1761.881  1729.727   0.378787   0.314665   0.176637
       17(1)       10(1)      1638.166  1596.305   0.378633   0.315366   0.176622
       17(1)       11(1)      1486.269  1472.774   0.379036   0.314776   0.176973
       17(1)       12(1)      1422.226  1405.524   0.378903   0.314878   0.176732
       17(1)       13(1)      1297.571  1280.639   0.378905   0.314119   0.176534
       17(1)       14(1)      1085.136  1066.616   0.378071   0.315830   0.177020
       17(1)       15(1)      1010.526  1004.592   0.378940   0.315704   0.177161
       17(1)       16(1)       965.958   955.627   0.379068   0.315003   0.177143
       18(1)        1(1)      3837.028  3653.182   0.379203   0.314238   0.177502
       18(1)        2(1)      3262.677  3144.180   0.378874   0.314326   0.177476
       18(1)        3(1)      3218.522  3050.822   0.378751   0.314498   0.177517
       18(1)        4(1)      3153.319  3007.397   0.378721   0.314419   0.177518
       18(1)        5(1)      1916.546  1890.986   0.377891   0.313853   0.177146
       18(1)        6(1)      1539.279  1504.266   0.378937   0.316440   0.177610
       18(1)        7(1)      1533.428  1506.703   0.378742   0.314836   0.178341
       18(1)        8(1)      1485.172  1457.560   0.378659   0.312902   0.176497
       18(1)        9(1)      1412.576  1384.481   0.378591   0.313872   0.177174
       18(1)       10(1)      1288.862  1249.167   0.378437   0.314572   0.177158
       18(1)       11(1)      1136.965  1117.794   0.378840   0.313982   0.177510
       18(1)       12(1)      1072.922  1069.643   0.378707   0.314085   0.177269
       18(1)       13(1)       948.267   935.383   0.378709   0.313325   0.177071
       18(1)       14(1)       735.831   729.583   0.377875   0.315037   0.177557
       18(1)       15(1)       661.222   654.618   0.378744   0.314910   0.177698
       18(1)       16(1)       616.654   605.703   0.378872   0.314210   0.177680
       18(1)       17(1)       495.068   502.887   0.379405   0.314841   0.177074

     ==================================================
      Thermodynamic properties and Partition Functions
     ==================================================

 ZPE(harm) = 0.16238D+03 kJ/mol        ZPE(anh)= 0.16022D+03 kJ/mol

 Input values of T(K) and P(atm): 298.15   1.00
                    Harmonic value     SPT anharmonic value
 Qvib               0.17102D-27          0.40046D-27
 QZvib              0.47998D+01          0.46944D+01
 Energy             0.17437D+03          0.17229D+03         kJ/mol
 Enthalpy           0.17685D+03          0.17477D+03         kJ/mol
 Entropy            0.28782D+03          0.28790D+03         J/(mol K)
 Sp.Heat(V)         0.59848D+02          0.60752D+02         J/(mol K)
 Sp.Heat(P)         0.68162D+02          0.69067D+02         J/(mol K)

 T =  298.15 K;  P =   1.00 atm
                    Harmonic value     SPT anharmonic value
 Qvib               0.17102D-27          0.40046D-27
 QZvib              0.47998D+01          0.46944D+01
 Energy             0.17437D+03          0.17229D+03         kJ/mol
 Enthalpy           0.17685D+03          0.17477D+03         kJ/mol
 Entropy            0.28782D+03          0.28790D+03         J/(mol K)
 Sp.Heat(V)         0.59848D+02          0.60752D+02         J/(mol K)
 Sp.Heat(P)         0.68162D+02          0.69067D+02         J/(mol K)

 T =  500.00 K;  P =   1.00 atm
                    Harmonic value     SPT anharmonic value
 Qvib               0.19962D-15          0.33776D-15
 QZvib              0.18359D+02          0.18457D+02
 Energy             0.18941D+03          0.18756D+03         kJ/mol
 Enthalpy           0.19357D+03          0.19172D+03         kJ/mol
 Entropy            0.33001D+03          0.33068D+03         J/(mol K)
 Sp.Heat(V)         0.87953D+02          0.89271D+02         J/(mol K)
 Sp.Heat(P)         0.96268D+02          0.97585D+02         J/(mol K)

 T = 1000.00 K;  P =   1.00 atm
                    Harmonic value     SPT anharmonic value
 Qvib               0.21059D-05          0.29493D-05
 QZvib              0.63865D+03          0.68944D+03
 Energy             0.24469D+03          0.24360D+03         kJ/mol
 Enthalpy           0.25300D+03          0.25191D+03         kJ/mol
 Entropy            0.41082D+03          0.41253D+03         J/(mol K)
 Sp.Heat(V)         0.12774D+03          0.12939D+03         J/(mol K)
 Sp.Heat(P)         0.13605D+03          0.13771D+03         J/(mol K)

 T = 1500.00 K;  P =   1.00 atm
                    Harmonic value     SPT anharmonic value
 Qvib               0.36562D-01          0.49712D-01
 QZvib              0.16503D+05          0.18864D+05
 Energy             0.31384D+03          0.31355D+03         kJ/mol
 Enthalpy           0.32631D+03          0.32602D+03         kJ/mol
 Entropy            0.47001D+03          0.47237D+03         J/(mol K)
 Sp.Heat(V)         0.14676D+03          0.14821D+03         J/(mol K)
 Sp.Heat(P)         0.15507D+03          0.15653D+03         J/(mol K)

 T = 2000.00 K;  P =   1.00 atm
                    Harmonic value     SPT anharmonic value
 Qvib               0.16462D+02          0.22387D+02
 QZvib              0.28668D+06          0.34228D+06
 Energy             0.38997D+03          0.39032D+03         kJ/mol
 Enthalpy           0.40660D+03          0.40694D+03         kJ/mol
 Entropy            0.51613D+03          0.51886D+03         J/(mol K)
 Sp.Heat(V)         0.15676D+03          0.15786D+03         J/(mol K)
 Sp.Heat(P)         0.16507D+03          0.16618D+03         J/(mol K)

     ==================================================
               Anharmonic Transition Moments
     ==================================================

 ## DEPERTURBED TRANSITIONS MOMENTS ##

 Electric dipole : Fundamental Bands
 ------------------------------------------------------------------------
   Mode(n)                            X               Y               Z
      1(1)                      -0.229326D-01    0.174431D-01   -0.633732D-04
      2(1)                       0.166605D-01    0.392060D-02   -0.542231D-06
      3(1)                       0.462462D-06   -0.348539D-04    0.198913D-02
      4(1)                      -0.185996D-01    0.461004D-02   -0.691970D-05
      5(1)                      -0.449724D-01    0.719114D-01    0.188680D-03
      6(1)                      -0.400348D-04   -0.800129D-04   -0.221067D-01
      7(1)                       0.186767D-01    0.217448D-01   -0.136162D-04
      8(1)                      -0.272893D-01   -0.184702D-02   -0.296955D-03
      9(1)                       0.357690D-02   -0.542518D-02   -0.208541D-04
     10(1)                      -0.400216D-01   -0.319285D-01   -0.171608D-04
     11(1)                       0.178602D-03    0.213833D-03    0.211911D-01
     12(1)                      -0.200835D-01   -0.175044D-01   -0.318813D-05
     13(1)                      -0.154069D-01   -0.149415D-01   -0.295341D-03
     14(1)                      -0.201181D-03    0.361239D-03   -0.821406D-01
     15(1)                      -0.491074D-01   -0.316660D-01   -0.251558D-04
     16(1)                       0.230833D-04   -0.574401D-04   -0.737249D-01
     17(1)                       0.542835D-02    0.317565D-01    0.692703D-04
     18(1)                      -0.126745D-03   -0.163963D-03   -0.139241D-01

 Electric dipole : Overtones
 ------------------------------------------------------------------------
   Mode(n)                            X               Y               Z
      1(2)                       0.885653D-02    0.450864D-02   -0.117529D-07
      2(2)                      -0.640273D-03   -0.136653D-02    0.672785D-07
      3(2)                       0.699021D-03    0.171366D-02   -0.875210D-07
      4(2)                      -0.226011D-02    0.695734D-03   -0.104570D-06
      5(2)                       0.900013D-03    0.534034D-02    0.271112D-07
      6(2)                       0.278323D-02    0.935475D-03   -0.142730D-06
      7(2)                       0.838605D-04    0.918553D-03   -0.564136D-07
      8(2)                      -0.189304D-02    0.804699D-03   -0.142729D-07
      9(2)                       0.353779D-02   -0.776821D-04   -0.676823D-07
     10(2)                       0.598257D-02   -0.120617D-02   -0.851456D-07
     11(2)                       0.344076D-03   -0.209808D-02    0.447787D-07
     12(2)                       0.302366D-03   -0.249918D-02   -0.150451D-06
     13(2)                      -0.207074D-02    0.136097D-01   -0.147913D-07
     14(2)                       0.319861D-01    0.111418D-01    0.842641D-07
     15(2)                       0.660970D-03   -0.132995D-02   -0.620328D-07
     16(2)                       0.532414D-02   -0.494656D-03   -0.521087D-07
     17(2)                      -0.368601D-02    0.774360D-03   -0.146877D-06
     18(2)                       0.165160D-02    0.117055D-01   -0.148720D-05

 Electric dipole : Combination Bands
 ------------------------------------------------------------------------
   Mode(n)     Mode(n)                X               Y               Z
      2(1)        1(1)           0.582992D-03    0.867664D-04   -0.250874D-07
      3(1)        1(1)          -0.303673D-07   -0.446749D-07   -0.471885D-03
      3(1)        2(1)          -0.430804D-08    0.180970D-06    0.778081D-03
      4(1)        1(1)           0.249201D-03    0.474499D-03   -0.105603D-07
      4(1)        2(1)           0.138981D-02   -0.790978D-03    0.654695D-07
      4(1)        3(1)          -0.276547D-07    0.518655D-07   -0.363598D-03
      5(1)        1(1)          -0.485595D-04   -0.682824D-03   -0.324934D-07
      5(1)        2(1)           0.425739D-03   -0.484699D-03   -0.631356D-08
      5(1)        3(1)          -0.334645D-07   -0.394365D-07   -0.672666D-03
      5(1)        4(1)           0.961091D-04    0.507328D-03   -0.114807D-07
      6(1)        1(1)           0.647811D-07   -0.129814D-06   -0.400581D-03
      6(1)        2(1)           0.606689D-07    0.301917D-06    0.111406D-02
      6(1)        3(1)          -0.548654D-04    0.264795D-02   -0.594210D-07
      6(1)        4(1)           0.106361D-06    0.427381D-07   -0.193624D-02
      6(1)        5(1)          -0.163083D-07    0.103415D-06    0.301903D-03
      7(1)        1(1)           0.214075D-04   -0.884749D-05    0.457655D-08
      7(1)        2(1)          -0.732537D-03    0.218271D-02   -0.212495D-06
      7(1)        3(1)          -0.214569D-07   -0.272186D-06   -0.189679D-02
      7(1)        4(1)           0.255920D-02    0.497241D-04    0.921629D-07
      7(1)        5(1)           0.446628D-03    0.885529D-03    0.198946D-07
      7(1)        6(1)           0.180865D-06    0.150662D-06   -0.908301D-03
      8(1)        1(1)          -0.108146D-03    0.180415D-02    0.212418D-07
      8(1)        2(1)          -0.235107D-02   -0.295655D-02    0.655675D-07
      8(1)        3(1)           0.902666D-07    0.116174D-06   -0.241517D-02
      8(1)        4(1)          -0.897466D-03    0.168506D-03   -0.182177D-06
      8(1)        5(1)           0.493108D-03   -0.308322D-02    0.153947D-07
      8(1)        6(1)           0.285211D-07   -0.123765D-06    0.238632D-03
      8(1)        7(1)          -0.217560D-02   -0.256774D-02    0.672412D-07
      9(1)        1(1)           0.181039D-02   -0.135924D-02    0.384627D-07
      9(1)        2(1)          -0.330828D-03   -0.475725D-03   -0.454770D-07
      9(1)        3(1)           0.145874D-07   -0.117264D-06   -0.223408D-02
      9(1)        4(1)           0.109356D-02    0.165283D-02   -0.587459D-07
      9(1)        5(1)           0.204435D-02    0.707908D-02   -0.102441D-06
      9(1)        6(1)           0.162741D-06    0.114775D-06    0.696989D-03
      9(1)        7(1)          -0.122853D-02   -0.702254D-03   -0.159457D-07
      9(1)        8(1)          -0.387286D-02    0.119121D-02    0.605034D-08
     10(1)        1(1)           0.372120D-02    0.195537D-02    0.653380D-07
     10(1)        2(1)          -0.636922D-03   -0.983817D-03    0.617090D-07
     10(1)        3(1)           0.190402D-07    0.149822D-06    0.601491D-03
     10(1)        4(1)          -0.196574D-02   -0.143200D-02   -0.312687D-07
     10(1)        5(1)          -0.100507D-02    0.239266D-02    0.602462D-07
     10(1)        6(1)           0.302804D-07   -0.147565D-06   -0.754525D-03
     10(1)        7(1)          -0.128645D-02   -0.325011D-03    0.111993D-06
     10(1)        8(1)          -0.511890D-02   -0.957834D-03   -0.524927D-07
     10(1)        9(1)           0.105149D-01    0.956960D-03    0.780363D-07
     11(1)        1(1)           0.384460D-07   -0.506597D-07   -0.751607D-03
     11(1)        2(1)           0.498915D-08   -0.674475D-07    0.212372D-03
     11(1)        3(1)           0.827511D-03    0.660681D-03   -0.170229D-06
     11(1)        4(1)          -0.689240D-07    0.104725D-06    0.127011D-02
     11(1)        5(1)          -0.147319D-06   -0.151575D-07   -0.128597D-02
     11(1)        6(1)          -0.144194D-02    0.539323D-03   -0.230319D-06
     11(1)        7(1)           0.612554D-08   -0.190096D-06   -0.129132D-02
     11(1)        8(1)           0.398390D-07    0.917622D-07   -0.189950D-02
     11(1)        9(1)           0.152627D-06   -0.923237D-07   -0.310996D-02
     11(1)       10(1)          -0.296848D-07    0.141349D-06    0.709725D-03
     12(1)        1(1)           0.188460D-02    0.548520D-03   -0.642719D-07
     12(1)        2(1)           0.166639D-02    0.191969D-02   -0.629682D-07
     12(1)        3(1)           0.391350D-07   -0.674451D-07    0.429812D-03
     12(1)        4(1)          -0.211419D-03    0.122151D-04    0.525177D-07
     12(1)        5(1)           0.639703D-03   -0.125902D-02   -0.329386D-07
     12(1)        6(1)           0.189194D-06    0.169394D-06    0.241174D-02
     12(1)        7(1)          -0.135793D-02   -0.817859D-03   -0.274354D-06
     12(1)        8(1)          -0.374840D-02   -0.273787D-02    0.145044D-06
     12(1)        9(1)           0.398367D-02    0.191772D-02   -0.606232D-07
     12(1)       10(1)           0.175335D-02   -0.536172D-02    0.111996D-06
     12(1)       11(1)          -0.102143D-06   -0.296002D-06    0.411639D-03
     13(1)        1(1)           0.247338D-02   -0.202242D-02   -0.213667D-07
     13(1)        2(1)          -0.100416D-02   -0.417449D-03    0.117687D-07
     13(1)        3(1)           0.261479D-08   -0.333392D-07    0.291577D-05
     13(1)        4(1)          -0.867056D-05   -0.278528D-03    0.457889D-07
     13(1)        5(1)           0.925152D-03   -0.124565D-02    0.429848D-07
     13(1)        6(1)           0.626406D-07    0.659757D-07    0.771112D-05
     13(1)        7(1)          -0.180685D-04    0.970162D-03   -0.415890D-07
     13(1)        8(1)           0.105756D-02   -0.841967D-03    0.407479D-07
     13(1)        9(1)           0.321096D-02   -0.322262D-03    0.109791D-08
     13(1)       10(1)           0.920390D-02   -0.432698D-04    0.763184D-08
     13(1)       11(1)          -0.266838D-07    0.334194D-07    0.845822D-03
     13(1)       12(1)           0.240279D-02   -0.293149D-03    0.121644D-07
     14(1)        1(1)           0.403254D-07   -0.141942D-07   -0.263516D-02
     14(1)        2(1)           0.178265D-07    0.207545D-07    0.413890D-03
     14(1)        3(1)          -0.166568D-03    0.868143D-03   -0.895783D-07
     14(1)        4(1)          -0.710995D-07    0.829367D-07    0.406420D-03
     14(1)        5(1)          -0.402126D-07   -0.888449D-08    0.125960D-02
     14(1)        6(1)          -0.802201D-04    0.836352D-03   -0.948698D-07
     14(1)        7(1)          -0.468620D-08   -0.144655D-06   -0.272606D-03
     14(1)        8(1)           0.168012D-07    0.775373D-07   -0.924538D-03
     14(1)        9(1)           0.424431D-08   -0.688789D-08   -0.161591D-02
     14(1)       10(1)          -0.624828D-07    0.627277D-07   -0.173466D-02
     14(1)       11(1)          -0.148380D-02   -0.147034D-02    0.199450D-07
     14(1)       12(1)          -0.294798D-07   -0.125221D-06   -0.210150D-03
     14(1)       13(1)           0.185323D-07   -0.342781D-07    0.134485D-02
     15(1)        1(1)           0.115199D-02   -0.120114D-02    0.116435D-06
     15(1)        2(1)           0.560024D-03    0.171807D-03   -0.133223D-07
     15(1)        3(1)          -0.405131D-07    0.341737D-08    0.118638D-03
     15(1)        4(1)          -0.114241D-03    0.686771D-03   -0.308194D-07
     15(1)        5(1)           0.787812D-03    0.217354D-02    0.451060D-07
     15(1)        6(1)           0.115579D-07    0.869911D-07    0.358353D-03
     15(1)        7(1)          -0.398784D-03   -0.496017D-03   -0.141629D-08
     15(1)        8(1)          -0.308774D-02   -0.187495D-02    0.662866D-07
     15(1)        9(1)           0.170150D-03    0.883115D-02   -0.711156D-07
     15(1)       10(1)           0.902294D-02   -0.509639D-02   -0.695633D-07
     15(1)       11(1)          -0.243084D-07    0.615959D-07   -0.199804D-03
     15(1)       12(1)           0.228419D-02   -0.115911D-02   -0.182433D-07
     15(1)       13(1)          -0.198951D-01    0.104146D-01   -0.274139D-06
     15(1)       14(1)           0.382579D-07    0.990761D-07    0.724120D-03
     16(1)        1(1)           0.153949D-07    0.686434D-07   -0.114976D-02
     16(1)        2(1)          -0.796769D-07   -0.170504D-07   -0.338965D-03
     16(1)        3(1)          -0.224876D-03   -0.940555D-03    0.137234D-06
     16(1)        4(1)           0.975785D-07   -0.110947D-06   -0.586681D-03
     16(1)        5(1)          -0.396931D-07    0.628191D-08    0.117650D-02
     16(1)        6(1)           0.297385D-03   -0.125338D-02    0.802706D-07
     16(1)        7(1)           0.165706D-07    0.688356D-07    0.142107D-03
     16(1)        8(1)           0.330893D-07   -0.709042D-07    0.258141D-02
     16(1)        9(1)          -0.496888D-07   -0.780985D-08    0.301846D-03
     16(1)       10(1)          -0.507108D-07   -0.202152D-07   -0.135212D-02
     16(1)       11(1)          -0.136847D-02    0.256269D-02    0.273040D-07
     16(1)       12(1)           0.698921D-07    0.223791D-06   -0.549894D-02
     16(1)       13(1)          -0.108447D-06    0.236368D-07    0.138922D-02
     16(1)       14(1)           0.133917D-01   -0.784694D-03    0.146201D-06
     16(1)       15(1)           0.562139D-07    0.130984D-08    0.387363D-03
     17(1)        1(1)          -0.584323D-03   -0.717037D-03   -0.494455D-07
     17(1)        2(1)          -0.448106D-03   -0.434719D-03    0.674483D-07
     17(1)        3(1)           0.111542D-06    0.761217D-08    0.299800D-03
     17(1)        4(1)          -0.154553D-03   -0.243965D-03    0.659801D-07
     17(1)        5(1)           0.303893D-02   -0.190934D-02    0.219812D-07
     17(1)        6(1)           0.148411D-06    0.566709D-07    0.961439D-03
     17(1)        7(1)          -0.256064D-03   -0.835209D-03   -0.919108D-07
     17(1)        8(1)          -0.824073D-02    0.181100D-01    0.384997D-07
     17(1)        9(1)           0.309250D-03   -0.297056D-02    0.306893D-07
     17(1)       10(1)          -0.436988D-02    0.241315D-02   -0.135843D-07
     17(1)       11(1)           0.890003D-07   -0.865515D-07    0.846585D-03
     17(1)       12(1)          -0.166672D-01    0.547682D-02   -0.262396D-06
     17(1)       13(1)          -0.247326D-02    0.122671D-02   -0.463323D-07
     17(1)       14(1)           0.182280D-06   -0.848262D-09    0.157868D-03
     17(1)       15(1)          -0.162903D-02    0.171040D-02   -0.387893D-07
     17(1)       16(1)          -0.137043D-06    0.198925D-07    0.538415D-04
     18(1)        1(1)          -0.342133D-07   -0.191704D-06   -0.228039D-02
     18(1)        2(1)           0.842664D-06    0.185365D-06    0.932398D-03
     18(1)        3(1)           0.763653D-03   -0.296874D-02   -0.349450D-07
     18(1)        4(1)          -0.506232D-07   -0.749827D-07    0.640136D-04
     18(1)        5(1)           0.423005D-07   -0.178940D-07    0.230576D-03
     18(1)        6(1)          -0.205666D-02    0.620385D-02   -0.447960D-06
     18(1)        7(1)          -0.388486D-06    0.602003D-07    0.793016D-02
     18(1)        8(1)           0.197446D-06    0.422045D-06   -0.566879D-03
     18(1)        9(1)          -0.153892D-06    0.357196D-06   -0.352014D-03
     18(1)       10(1)          -0.882040D-07   -0.236423D-06   -0.881975D-03
     18(1)       11(1)          -0.237018D-02    0.626116D-02   -0.437525D-06
     18(1)       12(1)          -0.308007D-06    0.456394D-09    0.276711D-02
     18(1)       13(1)           0.474324D-06    0.298598D-06    0.468610D-02
     18(1)       14(1)          -0.169030D-03   -0.224811D-02   -0.146868D-06
     18(1)       15(1)          -0.887973D-07   -0.459789D-07    0.250590D-02
     18(1)       16(1)           0.180599D-01    0.703571D-02    0.107262D-05
     18(1)       17(1)           0.334024D-06   -0.203312D-06    0.898633D-02

 ## AFTER VARIATIONAL CORRECTION

 Electric dipole : Fundamental Bands
 ------------------------------------------------------------------------
   Mode(n)                            X               Y               Z
      1(1)                      -0.229326D-01    0.174431D-01   -0.633732D-04
      2(1)                       0.166605D-01    0.392060D-02   -0.542231D-06
      3(1)                       0.459271D-06   -0.335788D-04    0.190047D-02
      4(1)                      -0.185996D-01    0.461004D-02   -0.691970D-05
      5(1)                      -0.449724D-01    0.719114D-01    0.188680D-03
      6(1)                      -0.367502D-04   -0.735169D-04   -0.198907D-01
      7(1)                       0.186767D-01    0.217448D-01   -0.136162D-04
      8(1)                      -0.277282D-01   -0.304559D-02   -0.296636D-03
      9(1)                      -0.968248D-02   -0.100910D-01    0.249344D-04
     10(1)                      -0.420014D-01   -0.288252D-01   -0.157248D-04
     11(1)                       0.173172D-03    0.207241D-03    0.198561D-01
     12(1)                      -0.200835D-01   -0.175044D-01   -0.318813D-05
     13(1)                      -0.154069D-01   -0.149415D-01   -0.295341D-03
     14(1)                      -0.191885D-03    0.344608D-03   -0.791078D-01
     15(1)                      -0.491074D-01   -0.316660D-01   -0.251558D-04
     16(1)                       0.230833D-04   -0.574401D-04   -0.737249D-01
     17(1)                       0.542835D-02    0.317565D-01    0.692703D-04
     18(1)                      -0.126745D-03   -0.163963D-03   -0.139241D-01

 Electric dipole : Overtones
 ------------------------------------------------------------------------
   Mode(n)                            X               Y               Z
      1(2)                       0.885653D-02    0.450864D-02   -0.117529D-07
      2(2)                      -0.706184D-03   -0.152910D-02    0.755939D-07
      3(2)                       0.632365D-03    0.157031D-02   -0.804481D-07
      4(2)                      -0.226011D-02    0.695734D-03   -0.104570D-06
      5(2)                       0.900013D-03    0.534034D-02    0.271112D-07
      6(2)                       0.214172D-02    0.126120D-02   -0.139921D-06
      7(2)                      -0.180753D-02   -0.536190D-04    0.616774D-07
      8(2)                      -0.186625D-02    0.879143D-03   -0.193932D-07
      9(2)                       0.353779D-02   -0.776821D-04   -0.676823D-07
     10(2)                       0.598257D-02   -0.120617D-02   -0.851456D-07
     11(2)                       0.344076D-03   -0.209808D-02    0.447787D-07
     12(2)                       0.302366D-03   -0.249918D-02   -0.150451D-06
     13(2)                      -0.207074D-02    0.136097D-01   -0.147913D-07
     14(2)                       0.302986D-01    0.677343D-02    0.158493D-05
     15(2)                       0.660970D-03   -0.132995D-02   -0.620328D-07
     16(2)                       0.532414D-02   -0.494656D-03   -0.521087D-07
     17(2)                      -0.368601D-02    0.774360D-03   -0.146877D-06
     18(2)                       0.165160D-02    0.117055D-01   -0.148720D-05

 Electric dipole : Combination Bands
 ------------------------------------------------------------------------
   Mode(n)     Mode(n)                X               Y               Z
      2(1)        1(1)           0.582992D-03    0.867664D-04   -0.250874D-07
      3(1)        1(1)          -0.303673D-07   -0.446749D-07   -0.471885D-03
      3(1)        2(1)          -0.430804D-08    0.180970D-06    0.778081D-03
      4(1)        1(1)           0.249201D-03    0.474499D-03   -0.105603D-07
      4(1)        2(1)           0.138981D-02   -0.790978D-03    0.654695D-07
      4(1)        3(1)          -0.276547D-07    0.518655D-07   -0.363598D-03
      5(1)        1(1)          -0.485595D-04   -0.682824D-03   -0.324934D-07
      5(1)        2(1)           0.425739D-03   -0.484699D-03   -0.631356D-08
      5(1)        3(1)          -0.334645D-07   -0.394365D-07   -0.672666D-03
      5(1)        4(1)           0.961091D-04    0.507328D-03   -0.114807D-07
      6(1)        1(1)           0.647811D-07   -0.129814D-06   -0.400581D-03
      6(1)        2(1)           0.606689D-07    0.301917D-06    0.111406D-02
      6(1)        3(1)          -0.548654D-04    0.264795D-02   -0.594210D-07
      6(1)        4(1)           0.106361D-06    0.427381D-07   -0.193624D-02
      6(1)        5(1)          -0.163083D-07    0.103415D-06    0.301903D-03
      7(1)        1(1)           0.214075D-04   -0.884749D-05    0.457655D-08
      7(1)        2(1)          -0.732537D-03    0.218271D-02   -0.212495D-06
      7(1)        3(1)          -0.214569D-07   -0.272186D-06   -0.189679D-02
      7(1)        4(1)           0.255920D-02    0.497241D-04    0.921629D-07
      7(1)        5(1)           0.446628D-03    0.885529D-03    0.198946D-07
      7(1)        6(1)           0.180865D-06    0.150662D-06   -0.908301D-03
      8(1)        1(1)          -0.108146D-03    0.180415D-02    0.212418D-07
      8(1)        2(1)          -0.235107D-02   -0.295655D-02    0.655675D-07
      8(1)        3(1)           0.902666D-07    0.116174D-06   -0.241517D-02
      8(1)        4(1)          -0.897466D-03    0.168506D-03   -0.182177D-06
      8(1)        5(1)           0.493108D-03   -0.308322D-02    0.153947D-07
      8(1)        6(1)           0.285211D-07   -0.123765D-06    0.238632D-03
      8(1)        7(1)          -0.217560D-02   -0.256774D-02    0.672412D-07
      9(1)        1(1)           0.181039D-02   -0.135924D-02    0.384627D-07
      9(1)        2(1)          -0.330828D-03   -0.475725D-03   -0.454770D-07
      9(1)        3(1)           0.145874D-07   -0.117264D-06   -0.223408D-02
      9(1)        4(1)           0.109356D-02    0.165283D-02   -0.587459D-07
      9(1)        5(1)           0.204435D-02    0.707908D-02   -0.102441D-06
      9(1)        6(1)           0.162741D-06    0.114775D-06    0.696989D-03
      9(1)        7(1)          -0.122853D-02   -0.702254D-03   -0.159457D-07
      9(1)        8(1)          -0.387286D-02    0.119121D-02    0.605034D-08
     10(1)        1(1)           0.372120D-02    0.195537D-02    0.653380D-07
     10(1)        2(1)          -0.636922D-03   -0.983817D-03    0.617090D-07
     10(1)        3(1)           0.190402D-07    0.149822D-06    0.601491D-03
     10(1)        4(1)          -0.196574D-02   -0.143200D-02   -0.312687D-07
     10(1)        5(1)          -0.100507D-02    0.239266D-02    0.602462D-07
     10(1)        6(1)           0.302804D-07   -0.147565D-06   -0.754525D-03
     10(1)        7(1)          -0.128645D-02   -0.325011D-03    0.111993D-06
     10(1)        8(1)          -0.511890D-02   -0.957834D-03   -0.524927D-07
     10(1)        9(1)           0.105149D-01    0.956960D-03    0.780363D-07
     11(1)        1(1)           0.384460D-07   -0.506597D-07   -0.751607D-03
     11(1)        2(1)           0.498915D-08   -0.674475D-07    0.212372D-03
     11(1)        3(1)           0.827511D-03    0.660681D-03   -0.170229D-06
     11(1)        4(1)          -0.689240D-07    0.104725D-06    0.127011D-02
     11(1)        5(1)          -0.147319D-06   -0.151575D-07   -0.128597D-02
     11(1)        6(1)          -0.144194D-02    0.539323D-03   -0.230319D-06
     11(1)        7(1)           0.612554D-08   -0.190096D-06   -0.129132D-02
     11(1)        8(1)           0.398390D-07    0.917622D-07   -0.189950D-02
     11(1)        9(1)           0.152627D-06   -0.923237D-07   -0.310996D-02
     11(1)       10(1)          -0.296848D-07    0.141349D-06    0.709725D-03
     12(1)        1(1)           0.188460D-02    0.548520D-03   -0.642719D-07
     12(1)        2(1)           0.166639D-02    0.191969D-02   -0.629682D-07
     12(1)        3(1)           0.391350D-07   -0.674451D-07    0.429812D-03
     12(1)        4(1)          -0.211419D-03    0.122151D-04    0.525177D-07
     12(1)        5(1)           0.639703D-03   -0.125902D-02   -0.329386D-07
     12(1)        6(1)           0.189194D-06    0.169394D-06    0.241174D-02
     12(1)        7(1)          -0.135793D-02   -0.817859D-03   -0.274354D-06
     12(1)        8(1)          -0.374840D-02   -0.273787D-02    0.145044D-06
     12(1)        9(1)           0.398367D-02    0.191772D-02   -0.606232D-07
     12(1)       10(1)           0.175335D-02   -0.536172D-02    0.111996D-06
     12(1)       11(1)          -0.102143D-06   -0.296002D-06    0.411639D-03
     13(1)        1(1)           0.247338D-02   -0.202242D-02   -0.213667D-07
     13(1)        2(1)          -0.100416D-02   -0.417449D-03    0.117687D-07
     13(1)        3(1)           0.261479D-08   -0.333392D-07    0.291577D-05
     13(1)        4(1)          -0.867056D-05   -0.278528D-03    0.457889D-07
     13(1)        5(1)           0.925152D-03   -0.124565D-02    0.429848D-07
     13(1)        6(1)           0.626406D-07    0.659757D-07    0.771112D-05
     13(1)        7(1)          -0.180685D-04    0.970162D-03   -0.415890D-07
     13(1)        8(1)           0.105756D-02   -0.841967D-03    0.407479D-07
     13(1)        9(1)           0.321096D-02   -0.322262D-03    0.109791D-08
     13(1)       10(1)           0.920390D-02   -0.432698D-04    0.763184D-08
     13(1)       11(1)          -0.266838D-07    0.334194D-07    0.845822D-03
     13(1)       12(1)           0.240279D-02   -0.293149D-03    0.121644D-07
     14(1)        1(1)           0.403254D-07   -0.141942D-07   -0.263516D-02
     14(1)        2(1)           0.178265D-07    0.207545D-07    0.413890D-03
     14(1)        3(1)          -0.166568D-03    0.868143D-03   -0.895783D-07
     14(1)        4(1)          -0.710995D-07    0.829367D-07    0.406420D-03
     14(1)        5(1)          -0.402126D-07   -0.888449D-08    0.125960D-02
     14(1)        6(1)          -0.802201D-04    0.836352D-03   -0.948698D-07
     14(1)        7(1)          -0.468620D-08   -0.144655D-06   -0.272606D-03
     14(1)        8(1)           0.168012D-07    0.775373D-07   -0.924538D-03
     14(1)        9(1)           0.424431D-08   -0.688789D-08   -0.161591D-02
     14(1)       10(1)          -0.624828D-07    0.627277D-07   -0.173466D-02
     14(1)       11(1)          -0.148380D-02   -0.147034D-02    0.199450D-07
     14(1)       12(1)          -0.294798D-07   -0.125221D-06   -0.210150D-03
     14(1)       13(1)           0.185323D-07   -0.342781D-07    0.134485D-02
     15(1)        1(1)           0.115199D-02   -0.120114D-02    0.116435D-06
     15(1)        2(1)           0.560024D-03    0.171807D-03   -0.133223D-07
     15(1)        3(1)          -0.405131D-07    0.341737D-08    0.118638D-03
     15(1)        4(1)          -0.114241D-03    0.686771D-03   -0.308194D-07
     15(1)        5(1)           0.787812D-03    0.217354D-02    0.451060D-07
     15(1)        6(1)           0.115579D-07    0.869911D-07    0.358353D-03
     15(1)        7(1)          -0.398784D-03   -0.496017D-03   -0.141629D-08
     15(1)        8(1)          -0.308774D-02   -0.187495D-02    0.662866D-07
     15(1)        9(1)           0.170150D-03    0.883115D-02   -0.711156D-07
     15(1)       10(1)           0.902294D-02   -0.509639D-02   -0.695633D-07
     15(1)       11(1)          -0.243084D-07    0.615959D-07   -0.199804D-03
     15(1)       12(1)           0.228419D-02   -0.115911D-02   -0.182433D-07
     15(1)       13(1)          -0.198951D-01    0.104146D-01   -0.274139D-06
     15(1)       14(1)           0.382579D-07    0.990761D-07    0.724120D-03
     16(1)        1(1)           0.153949D-07    0.686434D-07   -0.114976D-02
     16(1)        2(1)          -0.796769D-07   -0.170504D-07   -0.338965D-03
     16(1)        3(1)          -0.224876D-03   -0.940555D-03    0.137234D-06
     16(1)        4(1)           0.975785D-07   -0.110947D-06   -0.586681D-03
     16(1)        5(1)          -0.396931D-07    0.628191D-08    0.117650D-02
     16(1)        6(1)           0.297385D-03   -0.125338D-02    0.802706D-07
     16(1)        7(1)           0.165706D-07    0.688356D-07    0.142107D-03
     16(1)        8(1)           0.330893D-07   -0.709042D-07    0.258141D-02
     16(1)        9(1)          -0.496888D-07   -0.780985D-08    0.301846D-03
     16(1)       10(1)          -0.507108D-07   -0.202152D-07   -0.135212D-02
     16(1)       11(1)          -0.136847D-02    0.256269D-02    0.273040D-07
     16(1)       12(1)           0.698921D-07    0.223791D-06   -0.549894D-02
     16(1)       13(1)          -0.108447D-06    0.236368D-07    0.138922D-02
     16(1)       14(1)          -0.411697D-02   -0.137532D-01   -0.687356D-05
     16(1)       15(1)           0.562139D-07    0.130984D-08    0.387363D-03
     17(1)        1(1)          -0.584323D-03   -0.717037D-03   -0.494455D-07
     17(1)        2(1)          -0.448106D-03   -0.434719D-03    0.674483D-07
     17(1)        3(1)           0.111542D-06    0.761217D-08    0.299800D-03
     17(1)        4(1)          -0.154553D-03   -0.243965D-03    0.659801D-07
     17(1)        5(1)           0.303893D-02   -0.190934D-02    0.219812D-07
     17(1)        6(1)           0.148411D-06    0.566709D-07    0.961439D-03
     17(1)        7(1)          -0.256064D-03   -0.835209D-03   -0.919108D-07
     17(1)        8(1)          -0.824073D-02    0.181100D-01    0.384997D-07
     17(1)        9(1)           0.309250D-03   -0.297056D-02    0.306893D-07
     17(1)       10(1)          -0.436988D-02    0.241315D-02   -0.135843D-07
     17(1)       11(1)           0.118997D-04    0.235298D-04    0.744289D-02
     17(1)       12(1)          -0.166672D-01    0.547682D-02   -0.262396D-06
     17(1)       13(1)          -0.247326D-02    0.122671D-02   -0.463323D-07
     17(1)       14(1)           0.182280D-06   -0.848262D-09    0.157868D-03
     17(1)       15(1)          -0.162903D-02    0.171040D-02   -0.387893D-07
     17(1)       16(1)          -0.137043D-06    0.198925D-07    0.538415D-04
     18(1)        1(1)          -0.342133D-07   -0.191704D-06   -0.228039D-02
     18(1)        2(1)           0.842664D-06    0.185365D-06    0.932398D-03
     18(1)        3(1)           0.763653D-03   -0.296874D-02   -0.349450D-07
     18(1)        4(1)           0.741900D-07   -0.934156D-05    0.590709D-03
     18(1)        5(1)           0.423005D-07   -0.178940D-07    0.230576D-03
     18(1)        6(1)          -0.205666D-02    0.620385D-02   -0.447960D-06
     18(1)        7(1)          -0.388486D-06    0.602003D-07    0.793016D-02
     18(1)        8(1)          -0.105190D-04   -0.210684D-04   -0.622144D-02
     18(1)        9(1)          -0.153892D-06    0.357196D-06   -0.352014D-03
     18(1)       10(1)          -0.882040D-07   -0.236423D-06   -0.881975D-03
     18(1)       11(1)          -0.237018D-02    0.626116D-02   -0.437525D-06
     18(1)       12(1)           0.437061D-04    0.526855D-04    0.790295D-02
     18(1)       13(1)           0.474324D-06    0.298598D-06    0.468610D-02
     18(1)       14(1)          -0.169030D-03   -0.224811D-02   -0.146868D-06
     18(1)       15(1)          -0.604493D-04    0.108346D-03   -0.222559D-01
     18(1)       16(1)           0.180599D-01    0.703571D-02    0.107262D-05
     18(1)       17(1)           0.334024D-06   -0.203312D-06    0.898633D-02

     ==================================================
              Anharmonic Infrared Spectroscopy
     ==================================================

 Units: Transition energies (E) in cm^-1
        Integrated intensity (I) in km.mol^-1

 Fundamental Bands
 -----------------
   Mode(n)                  E(harm)   E(anharm)        I(harm)       I(anharm)
      1(1)                  3764.146   3579.741     81.97167238     48.12564082
      2(1)                  3189.795   3071.032     11.27750181     14.56888130
      3(1)                  3145.640   2964.701      0.00609439      0.17345819
      4(1)                  3080.437   2927.700      2.20847832     17.40945176
      5(1)                  1843.664   1815.936    229.74263361    211.55140337
      6(1)                  1466.397   1422.102     17.33822175      9.11160667
      7(1)                  1460.546   1428.400     22.07090053     19.00625697
      8(1)                  1412.290   1379.817     59.32327704     17.38922278
      9(1)                  1339.694   1322.474      9.52485718      4.18857189
     10(1)                  1215.980   1176.302    135.36100331     49.43282490
     11(1)                  1064.083   1043.384      6.74361159      6.66297180
     12(1)                  1000.040    985.333     26.96221563     11.32515066
     13(1)                   875.385    859.502      4.71759665      6.41252791
     14(1)                   662.949    641.435     83.23795567     65.00680818
     15(1)                   588.340    580.268     30.31782062     32.08370454
     16(1)                   543.772    531.076     35.96212799     46.74584199
     17(1)                   422.186    423.401      7.14013735      7.11680836
     18(1)                    72.882     76.210      1.01657474      0.23933076

 Overtones
 ---------
   Mode(n)                  E(harm)   E(anharm)                      I(anharm)
      1(2)                  7528.291   6994.185                     11.18668104
      2(2)                  6379.589   6087.866                      0.27967856
      3(2)                  6291.281   5854.221                      0.27168448
      4(2)                  6160.875   5796.819                      0.52495827
      5(2)                  3687.328   3614.273                      1.71663739
      6(2)                  2932.794   2841.047                      0.28421951
      7(2)                  2921.092   2854.640                      0.15116921
      8(2)                  2824.579   2743.897                      0.18910564
      9(2)                  2679.389   2607.382                      0.52873100
     10(2)                  2431.959   2336.202                      1.40911474
     11(2)                  2128.166   2088.346                      0.15287260
     12(2)                  2000.080   1968.900                      0.20206323
     13(2)                  1750.770   1713.135                      5.25753900
     14(2)                  1325.899   1259.546                     19.66054109
     15(2)                  1176.680   1160.853                      0.04146406
     16(2)                  1087.543   1060.269                      0.49091273
     17(2)                   844.372    847.864                      0.19478377
     18(2)                   145.764    148.820                      0.33679000

 Combination Bands
 -----------------
   Mode(n)     Mode(n)      E(harm)   E(anharm)                      I(anharm)
      2(1)        1(1)      6953.940   6650.547                      0.03741575
      3(1)        1(1)      6909.786   6547.945                      0.02361210
      3(1)        2(1)      6335.435   6007.299                      0.05889602
      4(1)        1(1)      6844.583   6507.718                      0.03027239
      4(1)        2(1)      6270.232   5950.175                      0.24640770
      4(1)        3(1)      6226.078   5763.447                      0.01233905
      5(1)        1(1)      5607.810   5394.557                      0.04093753
      5(1)        2(1)      5033.459   4888.492                      0.03294730
      5(1)        3(1)      4989.304   4783.462                      0.03505081
      5(1)        4(1)      4924.101   4743.254                      0.02047968
      6(1)        1(1)      5230.543   5009.063                      0.01301650
      6(1)        2(1)      4656.192   4483.682                      0.09011759
      6(1)        3(1)      4612.037   4388.470                      0.49851269
      6(1)        4(1)      4546.834   4353.330                      0.26429967
      6(1)        5(1)      3310.061   3244.688                      0.00478921
      7(1)        1(1)      5224.692   5008.122                      0.00004352
      7(1)        2(1)      4650.341   4489.634                      0.38540062
      7(1)        3(1)      4606.186   4379.565                      0.25516752
      7(1)        4(1)      4540.983   4351.507                      0.46171013
      7(1)        5(1)      3304.210   3243.827                      0.05167136
      7(1)        6(1)      2926.943   2854.435                      0.03813611
      8(1)        1(1)      5176.435   4954.111                      0.26207593
      8(1)        2(1)      4602.084   4445.929                      1.02731549
      8(1)        3(1)      4557.930   4343.769                      0.41031819
      8(1)        4(1)      4492.727   4315.516                      0.05827362
      8(1)        5(1)      3255.954   3194.079                      0.50428875
      8(1)        6(1)      2878.687   2802.943                      0.00258482
      8(1)        7(1)      2872.836   2804.340                      0.51437969
      9(1)        1(1)      5103.840   4875.832                      0.40467273
      9(1)        2(1)      4529.489   4375.082                      0.02378887
      9(1)        3(1)      4485.335   4270.157                      0.34514117
      9(1)        4(1)      4420.132   4233.757                      0.26929239
      9(1)        5(1)      3183.358   3118.623                      2.74196720
      9(1)        6(1)      2806.091   2735.459                      0.02151983
      9(1)        7(1)      2800.240   2733.129                      0.08862956
      9(1)        8(1)      2751.984   2675.679                      0.71139689
     10(1)        1(1)      4980.125   4746.405                      1.35824727
     10(1)        2(1)      4405.774   4242.559                      0.09437003
     10(1)        3(1)      4361.620   4141.667                      0.02426555
     10(1)        4(1)      4296.417   4101.240                      0.39283498
     10(1)        5(1)      3059.644   2985.407                      0.32560980
     10(1)        6(1)      2682.376   2602.074                      0.02398966
     10(1)        7(1)      2676.525   2600.778                      0.07415160
     10(1)        8(1)      2628.269   2547.459                      1.11882637
     10(1)        9(1)      2555.674   2471.113                      4.46112244
     11(1)        1(1)      4828.229   4624.768                      0.04230854
     11(1)        2(1)      4253.878   4112.908                      0.00300399
     11(1)        3(1)      4209.723   4006.099                      0.07274278
     11(1)        4(1)      4144.521   3967.169                      0.10363779
     11(1)        5(1)      2907.747   2858.524                      0.07655277
     11(1)        6(1)      2530.480   2469.801                      0.09479348
     11(1)        7(1)      2524.629   2468.459                      0.06665777
     11(1)        8(1)      2476.373   2420.143                      0.14140849
     11(1)        9(1)      2403.778   2350.237                      0.36810946
     11(1)       10(1)      2280.063   2217.621                      0.01808942
     12(1)        1(1)      4764.186   4564.355                      0.28476673
     12(1)        2(1)      4189.835   4052.030                      0.42403322
     12(1)        3(1)      4145.680   3948.602                      0.01181293
     12(1)        4(1)      4080.477   3910.176                      0.00283981
     12(1)        5(1)      2843.704   2799.535                      0.09041554
     12(1)        6(1)      2466.437   2407.585                      0.22677766
     12(1)        7(1)      2460.586   2413.868                      0.09822876
     12(1)        8(1)      2412.330   2358.868                      0.82306725
     12(1)        9(1)      2339.734   2289.609                      0.72477687
     12(1)       10(1)      2216.019   2155.963                      1.11103845
     12(1)       11(1)      2064.123   2030.513                      0.00557180
     13(1)        1(1)      4639.531   4436.983                      0.73345788
     13(1)        2(1)      4065.180   3931.094                      0.07528543
     13(1)        3(1)      4021.025   3828.716                      0.00000053
     13(1)        4(1)      3955.822   3787.816                      0.00476325
     13(1)        5(1)      2719.049   2678.379                      0.10442535
     13(1)        6(1)      2341.782   2288.410                      0.00000220
     13(1)        7(1)      2335.931   2286.052                      0.03485636
     13(1)        8(1)      2287.675   2229.569                      0.06597809
     13(1)        9(1)      2215.080   2162.739                      0.36474099
     13(1)       10(1)      2091.365   2029.498                      2.78418993
     13(1)       11(1)      1939.468   1903.197                      0.02204949
     13(1)       12(1)      1875.425   1842.831                      0.17486070
     14(1)        1(1)      4427.095   4219.001                      0.47443789
     14(1)        2(1)      3852.744   3713.040                      0.01030044
     14(1)        3(1)      3808.590   3609.311                      0.04567352
     14(1)        4(1)      3743.387   3569.436                      0.00954786
     14(1)        5(1)      2506.613   2457.793                      0.06314872
     14(1)        6(1)      2129.346   2070.439                      0.02366872
     14(1)        7(1)      2123.495   2070.705                      0.00249199
     14(1)        8(1)      2075.239   2025.497                      0.02803743
     14(1)        9(1)      2002.644   1945.670                      0.08227392
     14(1)       10(1)      1878.929   1799.625                      0.08769375
     14(1)       11(1)      1727.033   1687.803                      0.11926684
     14(1)       12(1)      1662.989   1628.337                      0.00116456
     14(1)       13(1)      1538.335   1500.282                      0.04394199
     15(1)        1(1)      4352.486   4158.370                      0.18652233
     15(1)        2(1)      3778.135   3651.416                      0.02029064
     15(1)        3(1)      3733.980   3548.222                      0.00080876
     15(1)        4(1)      3668.777   3508.087                      0.02753629
     15(1)        5(1)      2432.004   2390.358                      0.20690095
     15(1)        6(1)      2054.737   2009.423                      0.00417878
     15(1)        7(1)      2048.886   2006.952                      0.01316483
     15(1)        8(1)      2000.630   1954.158                      0.41296570
     15(1)        9(1)      1928.035   1885.801                      2.38258553
     15(1)       10(1)      1804.320   1751.413                      3.04575948
     15(1)       11(1)      1652.423   1625.223                      0.00105070
     15(1)       12(1)      1588.380   1565.567                      0.16634198
     15(1)       13(1)      1463.725   1443.414                     11.78740074
     15(1)       14(1)      1251.290   1223.228                      0.01038688
     16(1)        1(1)      4307.917   4106.263                      0.08790598
     16(1)        2(1)      3733.566   3601.228                      0.00670067
     16(1)        3(1)      3689.412   3498.824                      0.05298949
     16(1)        4(1)      3624.209   3458.554                      0.01927771
     16(1)        5(1)      2387.436   2346.173                      0.05258970
     16(1)        6(1)      2010.168   1956.672                      0.05258091
     16(1)        7(1)      2004.317   1957.813                      0.00064026
     16(1)        8(1)      1956.061   1908.200                      0.20591866
     16(1)        9(1)      1883.466   1838.380                      0.00271246
     16(1)       10(1)      1759.751   1703.990                      0.05044943
     16(1)       11(1)      1607.855   1577.264                      0.21558062
     16(1)       12(1)      1543.811   1520.020                      0.74432675
     16(1)       13(1)      1419.157   1388.995                      0.04341076
     16(1)       14(1)      1206.721   1161.580                      3.87689924
     16(1)       15(1)      1132.112   1109.858                      0.00269687
     17(1)        1(1)      4186.332   4002.424                      0.05545464
     17(1)        2(1)      3611.981   3494.639                      0.02205860
     17(1)        3(1)      3567.826   3391.200                      0.00493599
     17(1)        4(1)      3502.623   3351.323                      0.00452654
     17(1)        5(1)      2265.850   2238.582                      0.46694684
     17(1)        6(1)      1888.583   1852.759                      0.02773442
     17(1)        7(1)      1882.732   1855.361                      0.02292934
     17(1)        8(1)      1834.476   1799.379                     11.53570560
     17(1)        9(1)      1761.881   1729.727                      0.24985832
     17(1)       10(1)      1638.166   1596.305                      0.64417717
     17(1)       11(1)      1486.269   1472.774                      1.32124013
     17(1)       12(1)      1422.226   1405.524                      7.00568120
     17(1)       13(1)      1297.571   1280.639                      0.15806766
     17(1)       14(1)      1085.136   1066.616                      0.00043048
     17(1)       15(1)      1010.526   1004.592                      0.09076479
     17(1)       16(1)       965.958    955.627                      0.00004486
     18(1)        1(1)      3837.028   3653.182                      0.30764264
     18(1)        2(1)      3262.677   3144.180                      0.04426575
     18(1)        3(1)      3218.522   3050.822                      0.46424020
     18(1)        4(1)      3153.319   3007.397                      0.01699823
     18(1)        5(1)      1916.546   1890.986                      0.00162807
     18(1)        6(1)      1539.279   1504.266                      1.04061238
     18(1)        7(1)      1533.428   1506.703                      1.53443561
     18(1)        8(1)      1485.172   1457.560                      0.91363349
     18(1)        9(1)      1412.576   1384.481                      0.00277821
     18(1)       10(1)      1288.862   1249.167                      0.01573584
     18(1)       11(1)      1136.965   1117.794                      0.81131526
     18(1)       12(1)      1072.922   1069.643                      1.08194957
     18(1)       13(1)       948.267    935.383                      0.33263673
     18(1)       14(1)       735.831    729.583                      0.06005042
     18(1)       15(1)       661.222    654.618                      5.25108961
     18(1)       16(1)       616.654    605.703                      3.68479313
     18(1)       17(1)       495.068    502.887                      0.65764584

 Units: Transition energies (E) in cm^-1
        Dipole strengths (DS) in 10^-40 esu^2.cm^2

 Fundamental Bands
 -----------------
   Mode(n)                  E(harm)   E(anharm)       DS(harm)      DS(anharm)
      1(1)                  3764.146   3579.741     86.87699292     53.63302204
      2(1)                  3189.795   3071.032     14.10449597     18.92558514
      3(1)                  3145.640   2964.701      0.00772910      0.23341099
      4(1)                  3080.437   2927.700      2.86014579     23.72280029
      5(1)                  1843.664   1815.936    497.12685967    464.75360051
      6(1)                  1466.397   1422.102     47.16940721     25.56064189
      7(1)                  1460.546   1428.400     60.28541355     53.08284488
      8(1)                  1412.290   1379.817    167.57482300     50.27662937
      9(1)                  1339.694   1322.474     28.36351847     12.63532079
     10(1)                  1215.980   1176.302    444.09377486    167.65015463
     11(1)                  1064.083   1043.384     25.28275263     25.47599930
     12(1)                  1000.040    985.333    107.55872568     45.85308712
     13(1)                   875.385    859.502     21.49953372     29.76390491
     14(1)                   662.949    641.435    500.89696215    404.30891873
     15(1)                   588.340    580.268    205.57813289    220.57845817
     16(1)                   543.772    531.076    263.83735194    351.15052713
     17(1)                   422.186    423.401     67.46990150     67.05650331
     18(1)                    72.882     76.210     55.64506864     12.52838175

 Overtones
 ---------
   Mode(n)                  E(harm)   E(anharm)                     DS(anharm)
      1(2)                  7528.291   6994.185                      6.38074716
      2(2)                  6379.589   6087.866                      0.18327428
      3(2)                  6291.281   5854.221                      0.18514121
      4(2)                  6160.875   5796.819                      0.36127877
      5(2)                  3687.328   3614.273                      1.89480742
      6(2)                  2932.794   2841.047                      0.39910108
      7(2)                  2921.092   2854.640                      0.21126104
      8(2)                  2824.579   2743.897                      0.27494389
      9(2)                  2679.389   2607.382                      0.80897964
     10(2)                  2431.959   2336.202                      2.40626441
     11(2)                  2128.166   2088.346                      0.29203485
     12(2)                  2000.080   1968.900                      0.40942189
     13(2)                  1750.770   1713.135                     12.24329653
     14(2)                  1325.899   1259.546                     62.27144802
     15(2)                  1176.680   1160.853                      0.14249573
     16(2)                  1087.543   1060.269                      1.84712164
     17(2)                   844.372    847.864                      0.91650275
     18(2)                   145.764    148.820                      9.02827086

 Combination Bands
 -----------------
   Mode(n)     Mode(n)      E(harm)   E(anharm)                     DS(anharm)
      2(1)        1(1)      6953.940   6650.547                      0.02244422
      3(1)        1(1)      6909.786   6547.945                      0.01438590
      3(1)        2(1)      6335.435   6007.299                      0.03911237
      4(1)        1(1)      6844.583   6507.718                      0.01855775
      4(1)        2(1)      6270.232   5950.175                      0.16520831
      4(1)        3(1)      6226.078   5763.447                      0.00854096
      5(1)        1(1)      5607.810   5394.557                      0.03027424
      5(1)        2(1)      5033.459   4888.492                      0.02688762
      5(1)        3(1)      4989.304   4783.462                      0.02923231
      5(1)        4(1)      4924.101   4743.254                      0.01722481
      6(1)        1(1)      5230.543   5009.063                      0.01036681
      6(1)        2(1)      4656.192   4483.682                      0.08018297
      6(1)        3(1)      4612.037   4388.470                      0.45317970
      6(1)        4(1)      4546.834   4353.330                      0.24220465
      6(1)        5(1)      3310.061   3244.688                      0.00588841
      7(1)        1(1)      5224.692   5008.122                      0.00003466
      7(1)        2(1)      4650.341   4489.634                      0.34245921
      7(1)        3(1)      4606.186   4379.565                      0.23243517
      7(1)        4(1)      4540.983   4351.507                      0.42328916
      7(1)        5(1)      3304.210   3243.827                      0.06354768
      7(1)        6(1)      2926.943   2854.435                      0.05329957
      8(1)        1(1)      5176.435   4954.111                      0.21104195
      8(1)        2(1)      4602.084   4445.929                      0.92182558
      8(1)        3(1)      4557.930   4343.769                      0.37684389
      8(1)        4(1)      4492.727   4315.516                      0.05386996
      8(1)        5(1)      3255.954   3194.079                      0.62985572
      8(1)        6(1)      2878.687   2802.943                      0.00367895
      8(1)        7(1)      2872.836   2804.340                      0.73174645
      9(1)        1(1)      5103.840   4875.832                      0.33110261
      9(1)        2(1)      4529.489   4375.082                      0.02169177
      9(1)        3(1)      4485.335   4270.157                      0.32244847
      9(1)        4(1)      4420.132   4233.757                      0.25374971
      9(1)        5(1)      3183.358   3118.623                      3.50757297
      9(1)        6(1)      2806.091   2735.459                      0.03138455
      9(1)        7(1)      2800.240   2733.129                      0.12936769
      9(1)        8(1)      2751.984   2675.679                      1.06068252
     10(1)        1(1)      4980.125   4746.405                      1.14161967
     10(1)        2(1)      4405.774   4242.559                      0.08873882
     10(1)        3(1)      4361.620   4141.667                      0.02337342
     10(1)        4(1)      4296.417   4101.240                      0.38212231
     10(1)        5(1)      3059.644   2985.407                      0.43511224
     10(1)        6(1)      2682.376   2602.074                      0.03678002
     10(1)        7(1)      2676.525   2600.778                      0.11374301
     10(1)        8(1)      2628.269   2547.459                      1.75211616
     10(1)        9(1)      2555.674   2471.113                      7.20209661
     11(1)        1(1)      4828.229   4624.768                      0.03649602
     11(1)        2(1)      4253.878   4112.908                      0.00291378
     11(1)        3(1)      4209.723   4006.099                      0.07243953
     11(1)        4(1)      4144.521   3967.169                      0.10421851
     11(1)        5(1)      2907.747   2858.524                      0.10683816
     11(1)        6(1)      2530.480   2469.801                      0.15311717
     11(1)        7(1)      2524.629   2468.459                      0.10772891
     11(1)        8(1)      2476.373   2420.143                      0.23309977
     11(1)        9(1)      2403.778   2350.237                      0.62484567
     11(1)       10(1)      2280.063   2217.621                      0.03254204
     12(1)        1(1)      4764.186   4564.355                      0.24889559
     12(1)        2(1)      4189.835   4052.030                      0.41747903
     12(1)        3(1)      4145.680   3948.602                      0.01193498
     12(1)        4(1)      4080.477   3910.176                      0.00289734
     12(1)        5(1)      2843.704   2799.535                      0.12884410
     12(1)        6(1)      2466.437   2407.585                      0.37577348
     12(1)        7(1)      2460.586   2413.868                      0.16234261
     12(1)        8(1)      2412.330   2358.868                      1.39199927
     12(1)        9(1)      2339.734   2289.609                      1.26284606
     12(1)       10(1)      2216.019   2155.963                      2.05586780
     12(1)       11(1)      2064.123   2030.513                      0.01094705
     13(1)        1(1)      4639.531   4436.983                      0.65946966
     13(1)        2(1)      4065.180   3931.094                      0.07640204
     13(1)        3(1)      4021.025   3828.716                      0.00000055
     13(1)        4(1)      3955.822   3787.816                      0.00501674
     13(1)        5(1)      2719.049   2678.379                      0.15553970
     13(1)        6(1)      2341.782   2288.410                      0.00000384
     13(1)        7(1)      2335.931   2286.052                      0.06082798
     13(1)        8(1)      2287.675   2229.569                      0.11805553
     13(1)        9(1)      2215.080   2162.739                      0.67280277
     13(1)       10(1)      2091.365   2029.498                      5.47290241
     13(1)       11(1)      1939.468   1903.197                      0.04621917
     13(1)       12(1)      1875.425   1842.831                      0.37854203
     14(1)        1(1)      4427.095   4219.001                      0.44861848
     14(1)        2(1)      3852.744   3713.040                      0.01106710
     14(1)        3(1)      3808.590   3609.311                      0.05048327
     14(1)        4(1)      3743.387   3569.436                      0.01067122
     14(1)        5(1)      2506.613   2457.793                      0.10250067
     14(1)        6(1)      2129.346   2070.439                      0.04560575
     14(1)        7(1)      2123.495   2070.705                      0.00480104
     14(1)        8(1)      2075.239   2025.497                      0.05522225
     14(1)        9(1)      2002.644   1945.670                      0.16869427
     14(1)       10(1)      1878.929   1799.625                      0.19439898
     14(1)       11(1)      1727.033   1687.803                      0.28190664
     14(1)       12(1)      1662.989   1628.337                      0.00285315
     14(1)       13(1)      1538.335   1500.282                      0.11684610
     15(1)        1(1)      4352.486   4158.370                      0.17894314
     15(1)        2(1)      3778.135   3651.416                      0.02216879
     15(1)        3(1)      3733.980   3548.222                      0.00090932
     15(1)        4(1)      3668.777   3508.087                      0.03131429
     15(1)        5(1)      2432.004   2390.358                      0.34530828
     15(1)        6(1)      2054.737   2009.423                      0.00829632
     15(1)        7(1)      2048.886   2006.952                      0.02616892
     15(1)        8(1)      2000.630   1954.158                      0.84306608
     15(1)        9(1)      1928.035   1885.801                      5.04034149
     15(1)       10(1)      1804.320   1751.413                      6.93768419
     15(1)       11(1)      1652.423   1625.223                      0.00257914
     15(1)       12(1)      1588.380   1565.567                      0.42387485
     15(1)       13(1)      1463.725   1443.414                     32.57875680
     15(1)       14(1)      1251.290   1223.228                      0.03387544
     16(1)        1(1)      4307.917   4106.263                      0.08540416
     16(1)        2(1)      3733.566   3601.228                      0.00742292
     16(1)        3(1)      3689.412   3498.824                      0.06041920
     16(1)        4(1)      3624.209   3458.554                      0.02223660
     16(1)        5(1)      2387.436   2346.173                      0.08942277
     16(1)        6(1)      2010.168   1956.672                      0.10720557
     16(1)        7(1)      2004.317   1957.813                      0.00130465
     16(1)        8(1)      1956.061   1908.200                      0.43050600
     16(1)        9(1)      1883.466   1838.380                      0.00588621
     16(1)       10(1)      1759.751   1703.990                      0.11811272
     16(1)       11(1)      1607.855   1577.264                      0.54527127
     16(1)       12(1)      1543.811   1520.020                      1.95353803
     16(1)       13(1)      1419.157   1388.995                      0.12468207
     16(1)       14(1)      1206.721   1161.580                     13.31504852
     16(1)       15(1)      1132.112   1109.858                      0.00969393
     17(1)        1(1)      4186.332   4002.424                      0.05527416
     17(1)        2(1)      3611.981   3494.639                      0.02518158
     17(1)        3(1)      3567.826   3391.200                      0.00580668
     17(1)        4(1)      3502.623   3351.323                      0.00538838
     17(1)        5(1)      2265.850   2238.582                      0.83215038
     17(1)        6(1)      1888.583   1852.759                      0.05971832
     17(1)        7(1)      1882.732   1855.361                      0.04930268
     17(1)        8(1)      1834.476   1799.379                     25.57578649
     17(1)        9(1)      1761.881   1729.727                      0.57626694
     17(1)       10(1)      1638.166   1596.305                      1.60989262
     17(1)       11(1)      1486.269   1472.774                      3.57892895
     17(1)       12(1)      1422.226   1405.524                     19.88471565
     17(1)       13(1)      1297.571   1280.639                      0.49240629
     17(1)       14(1)      1085.136   1066.616                      0.00161009
     17(1)       15(1)      1010.526   1004.592                      0.36044191
     17(1)       16(1)       965.958    955.627                      0.00018728
     18(1)        1(1)      3837.028   3653.182                      0.33595615
     18(1)        2(1)      3262.677   3144.180                      0.05616527
     18(1)        3(1)      3218.522   3050.822                      0.60706237
     18(1)        4(1)      3153.319   3007.397                      0.02254864
     18(1)        5(1)      1916.546   1890.986                      0.00343473
     18(1)        6(1)      1539.279   1504.266                      2.75976208
     18(1)        7(1)      1533.428   1506.703                      4.06282818
     18(1)        8(1)      1485.172   1457.560                      2.50065035
     18(1)        9(1)      1412.576   1384.481                      0.00800543
     18(1)       10(1)      1288.862   1249.167                      0.05025473
     18(1)       11(1)      1136.965   1117.794                      2.89557680
     18(1)       12(1)      1072.922   1069.643                      4.03529694
     18(1)       13(1)       948.267    935.383                      1.41869205
     18(1)       14(1)       735.831    729.583                      0.32835882
     18(1)       15(1)       661.222    654.618                     32.00138663
     18(1)       16(1)       616.654    605.703                     24.26950415
     18(1)       17(1)       495.068    502.887                      5.21710236


 GradGradGradGradGradGradGradGradGradGradGradGradGradGradGradGradGradGrad
 Berny optimization.
 Search for a local minimum.
 Step number   1 out of a maximum of    2
 All quantities printed in internal units (Hartrees-Bohrs-Radians)
 Second derivative matrix not updated -- analytic derivatives used.
 ITU=  0
     Eigenvalues ---    0.00033   0.01775   0.02170   0.04434   0.05043
     Eigenvalues ---    0.06654   0.08906   0.10000   0.14338   0.22799
     Eigenvalues ---    0.29793   0.41607   0.60463   0.74037   0.75376
     Eigenvalues ---    0.85936   1.02245   1.69760
 Angle between quadratic step and forces=  77.44 degrees.
 Linear search not attempted -- first point.
 B after Tr=    -0.000014    0.000049   -0.000042
         Rot=    1.000000   -0.000001   -0.000003   -0.000004 Ang=  -0.00 deg.
 Variable       Old X    -DE/DX   Delta X   Delta X   Delta X     New X
                                 (Linear)    (Quad)   (Total)
    X1       -6.77205  -0.00000   0.00000  -0.00000  -0.00000  -6.77205
    Y1       -1.94739   0.00000   0.00000  -0.00000  -0.00000  -1.94740
    Z1       -0.11160  -0.00000   0.00000   0.00000   0.00000  -0.11160
    X2       -6.07807  -0.00000   0.00000  -0.00005  -0.00003  -6.07810
    Y2       -3.87624   0.00000   0.00000  -0.00002  -0.00001  -3.87625
    Z2       -0.09190  -0.00000   0.00000   0.00003   0.00002  -0.09188
    X3       -6.11877   0.00000   0.00000   0.00005   0.00004  -6.11873
    Y3       -0.97114  -0.00000   0.00000  -0.00003  -0.00003  -0.97117
    Z3       -1.80247   0.00000   0.00000   0.00000   0.00000  -1.80247
    X4       -8.83061  -0.00000   0.00000  -0.00000  -0.00000  -8.83061
    Y4       -1.92989  -0.00000   0.00000   0.00005   0.00004  -1.92986
    Z4       -0.14183   0.00000   0.00000  -0.00003  -0.00002  -0.14185
    X5       -5.84435   0.00000   0.00000   0.00000   0.00001  -5.84435
    Y5       -0.58335   0.00000   0.00000   0.00000   0.00000  -0.58334
    Z5        2.19088   0.00000   0.00000  -0.00000  -0.00000   2.19088
    X6       -4.53429   0.00000   0.00000   0.00002   0.00005  -4.53424
    Y6       -1.45662  -0.00000   0.00000   0.00001   0.00002  -1.45660
    Z6        3.82626  -0.00000   0.00000  -0.00002  -0.00003   3.82623
    X7       -6.66439  -0.00000   0.00000  -0.00002  -0.00003  -6.66443
    Y7        1.83572   0.00000   0.00000  -0.00001  -0.00001   1.83570
    Z7        2.24816   0.00000   0.00000   0.00001   0.00002   2.24818
    X8       -5.98995  -0.00000   0.00000  -0.00001  -0.00002  -5.98997
    Y8        2.57915  -0.00000   0.00000  -0.00000  -0.00001   2.57914
    Z8        3.77879  -0.00000   0.00000   0.00001   0.00001   3.77880
         Item               Value     Threshold  Converged?
 Maximum Force            0.000000     0.000450     YES
 RMS     Force            0.000000     0.000300     YES
 Maximum Displacement     0.000048     0.001800     YES
 RMS     Displacement     0.000022     0.001200     YES
 Predicted change in Energy=-2.281898D-12
 Optimization completed.
    -- Stationary point found.
 GradGradGradGradGradGradGradGradGradGradGradGradGradGradGradGradGradGrad

 Unable to Open any file for archive entry.
 1\1\GINC-RS1-C724\Freq\External='/home/mot/mace_gaussian/gm_helper.py'
 \ZDO\C2H4O2\MOT\15-Oct-2025\0\\# freq (anharm) # external="/home/mot/m
 ace_gaussian/gm_helper.py"\\Gaussian input generated from ASE\\0,1\C,-
 3.58361546,-1.03051699,-0.05905694\H,-3.21637476,-2.05121842,-0.048632
 29\H,-3.23791101,-0.51390701,-0.95382421\H,-4.67295711,-1.02125578,-0.
 07505451\C,-3.09269859,-0.30869368,1.15936592\O,-2.39944071,-0.7708086
 6,2.02476803\O,-3.52664554,0.97141888,1.18967358\H,-3.16974465,1.36482
 477,1.99965016\\Version=ES64L-G16RevC.02\HF=-229.1066717\RMSD=0.000e+0
 0\RMSF=3.704e-08\ZeroPoint=0.0618482\Thermal=0.0664154\ETot=-229.04025
 63\HTot=-229.0393122\GTot=-229.0719967\Dipole=-0.148186,-0.0166739,-0.
 2516251\DipoleDeriv=-0.0454246,-0.1034202,-0.1447002,-0.0710346,0.0141
 842,-0.1116405,-0.1259959,-0.1645153,-0.2941099,0.0824192,0.0776311,-0
 .0072019,0.0274059,-0.0808848,-0.0679151,-0.0362006,0.0140994,0.063296
 8,0.1078611,-0.0228188,0.0494717,-0.0435008,0.0572423,0.0551566,0.0121
 131,0.0108197,0.0468042,0.0033329,-0.0073978,-0.009716,0.028357,0.1011
 66,-0.0324029,0.0363383,-0.012688,0.1074103,0.5553378,-0.3020616,0.461
 4597,-0.2715631,1.0810514,0.0847659,0.4790718,0.0349472,0.9685423,-0.5
 521359,0.2709995,-0.3176706,0.1584343,-0.5941484,0.0668922,-0.3826541,
 0.2507269,-0.7420011,-0.4457071,0.1226792,0.0462532,0.0873848,-0.85734
 31,-0.1036188,0.0258753,-0.0459664,-0.4149423,0.2942806,-0.035644,-0.0
 779818,0.0845796,0.2787241,0.108858,-0.0085784,-0.0874845,0.2649197\PG
 =C01 [X(C2H4O2)]\NImag=0\\0.54629869,-0.03626190,0.59270326,-0.0092681
 6,-0.02830574,0.50768352,-0.08037364,0.09342286,-0.00077595,0.08164042
 ,0.08923770,-0.29782479,0.00084173,-0.09834342,0.32052895,-0.00319229,
 0.00767639,-0.04765197,0.00289498,-0.00158162,0.04891399,-0.06724097,-
 0.04109665,0.07276925,0.00323285,0.00402428,-0.01055117,0.07330560,-0.
 04164408,-0.10902413,0.10561208,-0.01103187,-0.01085892,0.02360854,0.0
 4660064,0.11270588,0.07414450,0.10532033,-0.23064386,-0.00123323,-0.00
 095978,0.00180880,-0.07791291,-0.11582543,0.24957752,-0.31963438,0.001
 81435,-0.00381017,-0.00745908,-0.00074487,0.00034071,-0.00935496,0.000
 29037,-0.00033036,0.34579276,0.00272263,-0.04661958,-0.00327319,0.0295
 3318,0.00313253,0.00030415,-0.01520840,-0.00063403,-0.00099465,-0.0020
 8516,0.04422168,-0.00497747,-0.00357172,-0.04065299,-0.00018914,0.0000
 1510,-0.00149103,0.02757252,-0.00062070,0.00144408,0.00522755,0.002374
 20,0.04557301,-0.09784967,-0.02352410,-0.02409330,0.00196120,0.0073091
 0,0.01226292,0.00355849,0.01028266,0.01074057,-0.01192291,-0.01747419,
 -0.03133399,0.48896169,-0.02512792,-0.11923990,-0.05710178,-0.01150198
 ,-0.01603652,-0.02633010,0.00699425,0.00982918,0.01760997,0.00223057,0
 .00026698,0.00230025,-0.15038524,0.59418092,-0.02501887,-0.05448189,-0
 .16372427,0.00140218,0.00438883,0.00186020,-0.01088648,-0.01215576,-0.
 02273698,-0.00022902,0.00525730,0.00230640,0.33091108,-0.03719426,0.75
 212429,0.00487844,0.01096886,-0.02945714,-0.00002315,-0.00047407,0.000
 62843,-0.00312067,-0.00348808,-0.00396516,0.00089810,0.00062469,0.0013
 6152,-0.30187565,0.13173002,-0.28771046,0.31126017,-0.00133265,0.01564
 720,-0.00861145,0.00005578,0.00288666,0.00208999,-0.00191864,-0.000577
 45,-0.00392592,-0.00178061,0.00042290,-0.00125727,0.14034816,-0.192328
 74,0.16386252,-0.19439864,0.22060656,-0.03655834,0.01147830,-0.0262847
 6,0.00093456,0.00122483,0.00165749,-0.00174818,-0.00115749,-0.00193335
 ,-0.00133851,-0.00266067,-0.00695207,-0.28273536,0.14978801,-0.4544098
 6,0.34572715,-0.20793003,0.47542532,0.01176302,-0.00807891,-0.00434577
 ,0.00025153,-0.00143619,-0.00249166,-0.00020167,-0.00096957,-0.0008150
 7,0.00131377,0.00152576,0.00194191,-0.09378310,0.04155587,-0.02226631,
 -0.00597283,0.06036572,-0.02354193,0.17757061,0.00822116,-0.03015489,-
 0.01066001,-0.00166117,-0.00117344,-0.00412305,0.00043829,-0.00169665,
 -0.00115542,0.00022468,-0.00107952,0.00027800,0.05249124,-0.24758025,-
 0.01941202,0.05677850,-0.05459954,0.04401440,-0.04810816,0.44464590,0.
 00506427,-0.03727977,-0.00168302,-0.00262149,-0.00375589,-0.00517966,0
 .00069528,0.00010977,0.00204263,0.00049306,-0.00116159,-0.00009022,-0.
 01595335,-0.03727101,-0.11302953,-0.02561282,0.04987270,0.01674321,0.1
 9959805,0.15598675,0.45436646,0.00215850,0.00275549,-0.00101876,0.0007
 6985,0.00042747,0.00010809,-0.00017866,-0.00004008,-0.00062834,0.00036
 670,0.00036149,0.00039708,0.01094995,0.00450442,0.01379788,-0.00604441
 ,-0.00133910,-0.00073939,-0.09094133,-0.06838455,-0.16166300,0.0829194
 0,0.00418506,-0.00548717,0.00149836,-0.00047339,-0.00065447,-0.0016443
 0,0.00016623,0.00025612,-0.00006910,0.00005066,0.00028902,0.00048214,-
 0.01904763,-0.02909167,-0.05026471,-0.00174128,0.00794241,0.00524266,-
 0.04485451,-0.10836160,-0.12650095,0.06171485,0.13510736,-0.00019364,-
 0.00083591,0.00295735,-0.00041191,-0.00017318,0.00008219,0.00006168,0.
 00042899,0.00044116,-0.00035326,0.00015445,-0.00013718,0.00020143,-0.0
 1180107,-0.00239024,-0.00097153,0.00589945,-0.00424597,-0.14807921,-0.
 16492864,-0.35316986,0.14974644,0.17125591,0.35646256\\0.00000003,-0.0
 0000003,0.00000003,0.00000003,0.,0.00000002,-0.00000009,0.00000003,0.,
 0.00000001,0.00000003,-0.00000005,-0.00000001,0.,-0.00000005,-0.000000
 03,0.00000004,0.00000003,0.00000004,-0.00000008,0.,0.00000001,0.000000
 03,0.00000003\\0.00850985,0.00689742,0.00381442,0.00745609,0.00025560,
 -0.01232416,0.03745777,-0.04791330,-0.01332191,-0.04256838,-0.04770258
 ,-0.03848605,0.03261006,0.05137874,0.04164960,-0.01129365,0.03345647,0
 .00102764,0.01228293,-0.03633506,0.00091921,-0.04139805,-0.02036418,0.
 05187864,0.00033838,-0.00361980,0.00522881,0.04525756,-0.02006499,0.04
 022810,-0.03574234,-0.00698702,0.00263222,0.00224241,0.02065211,-0.042
 78780,0.05329061,-0.03295715,0.00800492,0.00115012,0.00206588,-0.00397
 335,-0.05795591,0.03759271,-0.00769796,-0.00113927,0.06228830,-0.04628
 049,0.00708775,0.00230969,-0.00081874,-0.00771807,0.00200257,-0.001994
 85,0.00050958,0.06430431,-0.00444958,0.00142171,0.00165922,-0.00590721
 ,0.00418697,0.00437510,0.00321949,-0.00214952,-0.06930593,0.00266548,-
 0.04387751,0.00140340,-0.00124550,-0.00332888,-0.00042619,-0.00017768,
 -0.00062504,-0.00602400,0.00449848,0.04855197,-0.00121562,0.00205270,-
 0.00213476,-0.00038285,-0.00005787,-0.00272711,-0.00278973,-0.00703884
 ,0.00432914,0.00385560,0.00656114,0.00127865,0.00003569,0.00106056,0.0
 1765598,-0.00192230,-0.00054835,0.00069460,0.00056090,-0.00044707,-0.0
 0342241,-0.00145960,-0.00296729,-0.00493329,0.00333603,0.00430560,0.00
 769288,-0.00307584,-0.00438116,-0.00301560,-0.00129444,0.00268291,0.00
 352528,0.00236441,0.00317415,0.00040663,0.00018795,-0.00211033,-0.0001
 1981,-0.00125496,-0.00483565,0.00543444,0.00762608,-0.01327477,0.00056
 366,-0.00164256,0.00044003,-0.00025267,0.00061690,0.00113044,-0.000911
 64,0.00106672,-0.00028807,-0.00058542,-0.00035563,-0.00165890,-0.01680
 531,0.00163311,-0.00615063,0.02068142,-0.00134891,-0.00112809,0.001103
 59,0.00047052,0.00041604,0.00005681,0.00067233,0.00039519,0.00049441,-
 0.00035378,0.00015595,-0.00170190,0.00198560,0.00337937,-0.00702771,-0
 .00331528,-0.00492845,-0.00170745,0.00052429,0.00056481,-0.00070887,-0
 .00068310,-0.00016331,0.00123068,0.00127532,0.00189487,0.00008857,-0.0
 0156840,-0.00094930,-0.00548594,-0.00657698,0.01342581,0.00653186,0.00
 881569,-0.01575292,-0.00106687,0.00048587,0.00037821,0.00039948,-0.000
 20443,0.00020724,-0.00000008,-0.00019069,-0.00059203,0.00046212,-0.000
 32610,-0.00001916,-0.00202997,0.00030221,-0.00036890,-0.00272112,0.001
 93221,-0.00005972,0.01420203,0.00039859,0.00044598,-0.00034145,0.00055
 339,0.00007346,-0.00017919,-0.00030060,-0.00041860,0.00009778,-0.00035
 309,-0.00005299,0.00018656,0.00132245,0.00082811,-0.00137945,0.0019786
 6,0.00172255,-0.00182163,0.00296709,0.00032297,-0.00073870,-0.00078986
 ,0.00062086,0.00032030,0.00032490,-0.00047296,-0.00015405,0.00028696,-
 0.00052026,0.00046673,0.00024015,0.00052991,-0.00035097,-0.00074841,0.
 00120202,0.00009494,-0.00173851,0.00099854,0.00751259,0.00391312,-0.01
 452521,-0.00079233,0.00063130,-0.00049270,0.00026477,0.00001123,0.0003
 0181,0.00010277,-0.00033431,-0.00017100,0.00010466,-0.00038667,-0.0001
 0304,0.00043339,0.00062548,0.00028859,0.00003107,-0.00004269,0.0001108
 7,-0.00924559,-0.00656650,-0.00715083,0.00910126,-0.00056154,0.0001235
 7,-0.00000178,0.00027754,0.00006901,-0.00000599,0.00004464,-0.00030130
 ,-0.00021080,0.00007621,0.00006327,0.00008486,-0.00095092,-0.00016922,
 0.00077812,0.00001808,-0.00001257,0.00003482,-0.00496616,-0.00292147,-
 0.00148837,0.00606215,0.00314871,-0.00011380,-0.00059831,0.00066851,0.
 00008103,0.00007911,-0.00033369,-0.00000974,0.00018100,-0.00009637,0.0
 0010663,0.00033967,0.00012703,-0.00012252,-0.00033247,-0.00026414,-0.0
 0009967,-0.00000239,-0.00001851,-0.00705822,-0.00047574,0.01216710,0.0
 0721630,0.00080914,-0.01224994,0.01507457,0.00100750,-0.04049847,0.016
 37710,-0.02485372,0.01779984,-0.01231305,0.01549945,-0.01088368,0.0144
 4506,0.01438887,0.01548601,0.03253791,-0.01552379,-0.01563708,-0.01152
 490,0.03435164,0.00084300,0.01362349,-0.03473615,0.00280794,-0.0015667
 2,0.00589209,0.00488155,0.00113064,-0.00040450,-0.00177772,0.00079391,
 0.00662983,0.01953306,-0.01264662,-0.00061338,0.00206271,0.00054652,-0
 .00657681,-0.02259011,0.00504992,-0.01102965,-0.01946313,0.00158867,0.
 00169332,-0.00332618,-0.00567394,0.01213141,0.02043600,-0.00043172,-0.
 02086557,-0.01036067,-0.00260381,-0.00080302,-0.00004562,0.00034826,-0
 .00050933,-0.00040171,0.00037559,-0.02250592,-0.00037101,0.00005301,-0
 .00066319,0.00237070,0.00038077,0.00247746,-0.00113517,-0.00050687,0.0
 2351222,-0.00126044,-0.01105000,-0.00008973,-0.00069411,-0.00345210,-0
 .00065317,0.00010026,0.00112454,0.00186151,0.00145594,0.01152663,-0.00
 030427,-0.00047489,0.00066479,-0.00217485,0.00364760,-0.00000438,0.002
 09810,-0.00030723,-0.00069749,0.00213008,-0.00049747,0.00349549,-0.003
 49440,0.00200403,-0.00294173,0.00128442,-0.00661653,-0.00037255,0.0015
 6666,-0.00523429,-0.00099760,-0.00114370,0.00154981,-0.00230888,-0.000
 58220,-0.00076411,-0.00086043,-0.00844421,0.02503502,0.00564453,-0.006
 02169,0.00340438,-0.00061380,-0.00012996,-0.00015200,0.00164901,-0.003
 11167,0.00195153,-0.00035128,0.00053299,0.00007220,-0.00712619,0.00156
 447,-0.01229944,-0.00056846,0.00013850,-0.00520126,-0.00023505,0.00054
 882,0.00006912,-0.00005557,-0.00074343,-0.00028692,-0.00017091,0.00006
 953,-0.00016234,-0.00175589,0.01402930,0.00258118,0.00111793,-0.000789
 39,-0.00140161,-0.00363707,-0.00098158,0.00093534,-0.00101487,-0.00003
 529,-0.00003760,0.00004758,-0.00003970,0.00026261,0.00006932,0.0151203
 4,-0.01478161,0.01522272,-0.01621323,0.02480266,-0.00573681,-0.0021217
 5,-0.00792859,-0.00081444,0.00148447,-0.00055644,-0.00017577,-0.000213
 10,-0.00033550,0.00007220,-0.00064813,-0.00052032,0.00321103,0.0134410
 8,0.01462728,-0.00034039,-0.00961632,-0.01051320,-0.00094354,0.0001979
 1,0.00186665,-0.00022888,-0.00033573,-0.00012524,0.00000562,0.00004803
 ,0.00028880,-0.00075425,0.00039859,-0.00003015,0.00081676,-0.00457047,
 -0.00055209,0.00225768,0.00210562,0.00375934,0.01129243,0.00009616,0.0
 1232467,0.00843625,0.00055607,0.00029240,0.00123325,-0.00014821,0.0008
 4649,0.00003546,-0.00066191,0.00088364,0.00007281,-0.00345433,0.000405
 63,-0.00514110,0.00179128,-0.00944088,-0.00292905,-0.00447147,-0.03367
 953,0.00180784,0.00860220,0.00590199,0.00038958,-0.00022304,0.00023650
 ,-0.00003554,0.00134002,-0.00049335,-0.00043128,0.00082070,0.00022918,
 0.00009207,-0.00696344,-0.00432982,0.00357787,-0.00241560,0.00514867,0
 .01124554,-0.02837833,0.00480379,0.00008413,0.00030497,-0.00032729,-0.
 00019054,0.00003125,0.00008810,0.00004134,-0.00036499,-0.00006734,-0.0
 0025866,0.00020572,0.00003939,0.00042245,-0.00213979,-0.00123135,-0.00
 058974,0.00083322,0.00002484,-0.01244583,0.00629241,-0.01664608,0.0129
 3684,-0.00011146,0.00154387,0.00048278,0.00015976,-0.00027579,0.000236
 44,-0.00006103,-0.00022918,-0.00006238,-0.00005049,0.00001378,-0.00009
 603,-0.00178074,0.00040608,-0.00291576,0.00037923,-0.00033893,0.000602
 80,0.00662751,0.02836758,0.02721750,-0.00516279,-0.02948741,-0.0005676
 7,0.00116270,0.00013663,0.00016228,0.00002661,0.00004691,0.00000789,0.
 00009193,-0.00022531,-0.00000827,-0.00032819,-0.00016825,-0.00102384,-
 0.00350266,-0.00327413,-0.00023727,0.00134425,0.00007811,-0.01645284,0
 .02667071,-0.01149696,0.01811972,-0.02546535,0.01490299,0.03229011,0.0
 1218889,0.00458016,0.02021933,0.00667345,-0.03687268,-0.01462942,0.018
 36402,0.00469990,0.01582880,0.01764373,0.01455905,-0.01230809,-0.01858
 154,-0.01511734,0.00414214,-0.01294651,0.00007083,-0.00426469,0.013295
 83,-0.00071169,-0.01347980,-0.01535368,0.00844349,0.00188824,0.0021370
 3,-0.00136821,0.01366808,-0.01600848,-0.02267998,0.01011425,-0.0013671
 1,-0.00280023,-0.00298535,0.01816593,0.02696397,0.00837374,0.00899192,
 0.04074741,-0.00085570,-0.00083096,0.00057602,-0.00792931,-0.00901781,
 -0.04064586,-0.00376831,-0.01781161,-0.03494066,-0.00216700,-0.0009369
 4,-0.00058823,-0.00251625,-0.00031030,-0.00120647,0.00261965,-0.019035
 24,0.00072267,-0.00175751,-0.00107786,0.00239512,0.00373063,-0.0027120
 4,-0.00075404,-0.00225213,0.02013015,-0.00192274,-0.03533874,-0.001950
 87,-0.00154252,0.00186564,0.00039286,0.00010783,-0.00259308,0.00167013
 ,0.00327036,0.03668829,-0.00073862,-0.00068265,-0.00275498,0.00139751,
 -0.00593623,-0.00045966,0.00021326,0.00319803,-0.00039732,-0.00128553,
 0.00303194,0.00776441,0.00239528,-0.00002368,0.05235542,0.00893312,0.0
 0399655,-0.00816411,0.00341764,0.00134089,-0.00106176,-0.00299105,-0.0
 0088003,0.00299836,0.00002098,-0.00069842,0.00147856,0.01173676,0.0017
 5455,0.00965184,0.00196081,-0.00124029,-0.00147725,-0.00075241,-0.0008
 8137,0.00268754,0.00101297,-0.00562711,-0.00075442,0.00058555,-0.00016
 096,0.02815527,0.01409891,-0.05411140,-0.00203198,0.00228846,0.0037176
 2,-0.00004626,-0.00041551,-0.00023261,0.00059208,0.00033674,-0.0009000
 2,-0.00059884,-0.00045053,-0.00124591,-0.05489413,0.00124616,-0.022337
 92,0.05908753,-0.00123040,0.00062800,0.00162762,-0.00053204,-0.0003292
 0,0.00023354,0.00054111,-0.00000139,-0.00058489,0.00005995,0.00017445,
 -0.00054325,0.00548761,0.00924123,-0.02313995,-0.00816354,-0.01315574,
 -0.00476581,-0.00352635,0.00140474,-0.00035231,0.00011991,0.00037549,0
 .00129565,0.00069141,0.00081581,0.00112634,0.00023313,-0.00098241,-0.0
 1860794,-0.01922392,0.04565338,0.01941646,0.02465275,-0.04593213,0.004
 48536,-0.00252317,0.00233181,-0.00024124,-0.00035741,-0.00110544,-0.00
 001132,0.00026908,-0.00051985,-0.00108322,0.00079146,0.00047440,-0.002
 14008,-0.02340294,-0.00720428,-0.00188062,0.00205785,-0.00051498,0.101
 43597,-0.00208381,-0.00218861,0.00307098,-0.00033095,-0.00021320,-0.00
 024023,0.00011945,0.00013524,0.00057024,-0.00093846,0.00008681,-0.0003
 2182,-0.00551244,-0.00995471,0.00036571,0.00237923,0.00180284,-0.00204
 528,0.08801057,0.04954737,-0.00132859,0.00204636,-0.00229629,0.0005111
 8,0.00034732,0.00045433,-0.00039542,-0.00141291,0.00062970,-0.00031340
 ,0.00027583,0.00024250,-0.01123619,0.00989504,0.01209404,0.00153946,-0
 .00112220,0.00007727,0.09223238,0.00066628,-0.15098227,-0.00011098,0.0
 0144958,0.00146474,-0.00017347,0.00029738,0.00021902,0.00025629,0.0001
 9967,0.00000567,-0.00025045,-0.00004121,0.00017308,0.00052634,0.001039
 33,-0.00872077,-0.00022777,0.00177945,0.00240260,-0.10056486,-0.081643
 60,-0.08100942,0.10054490,-0.00040781,0.00038216,0.00074340,0.00010784
 ,0.00016491,-0.00002616,0.00009324,0.00001647,0.00012526,-0.00021378,-
 0.00000383,0.00001300,-0.01443245,-0.00480006,0.00586841,0.00277899,0.
 00163981,-0.00090165,-0.06484542,-0.03921574,-0.01069571,0.07691939,0.
 04181628,-0.00095392,-0.00124882,-0.00027121,-0.00012676,-0.00026446,0
 .00000857,-0.00014066,-0.00007270,0.00023365,-0.00001145,-0.00007689,-
 0.00025217,0.00141881,-0.00002107,0.00427372,0.00004292,-0.00112362,-0
 .00141215,-0.08569404,-0.00206589,0.13978072,0.08546509,0.00487345,-0.
 14236114,0.00579394,0.00521539,0.00955811,0.02299548,0.01775435,0.0413
 5902,-0.00354192,0.00380085,-0.00190217,0.00353320,0.00234149,0.003181
 20,0.00625626,-0.00330661,-0.00200629,-0.00274475,0.00863951,-0.000527
 68,0.00320934,-0.00678779,0.00172092,0.00066802,0.00152206,0.00072708,
 0.00023473,-0.00030371,-0.00037794,-0.00061296,0.00146109,0.00320501,-
 0.00226718,-0.00010696,0.00064462,-0.00004903,-0.00146883,-0.00393410,
 0.00069768,-0.00302678,-0.00355937,0.00021059,0.00017157,-0.00062249,-
 0.00063288,0.00231190,0.00469466,0.00053217,-0.00418114,-0.00261589,-0
 .00031191,-0.00022376,-0.00007998,0.00001419,-0.00018037,-0.00015485,0
 .00029057,-0.00353911,-0.00056148,-0.00041672,-0.00033232,0.00066158,0
 .00007613,0.00053541,-0.00028899,-0.00019531,0.00420091,-0.00003871,-0
 .00225104,-0.00060629,0.00034318,-0.00061757,-0.00028852,-0.00009285,0
 .00044542,0.00045532,0.00030041,0.00301000,0.00032352,-0.00010457,-0.0
 0273125,-0.01156649,-0.01060504,-0.00019735,0.00119307,-0.00049884,0.0
 0012654,0.00063886,0.00084737,-0.00088324,-0.00071758,-0.00046095,0.00
 759988,-0.00939656,-0.00599173,-0.01861698,0.00061048,-0.00217533,-0.0
 0056502,-0.00055167,-0.00005988,0.00083289,0.00045658,-0.00005673,-0.0
 0046562,-0.01358877,0.00881738,-0.00935204,-0.02215997,-0.02839255,-0.
 00083536,0.00038636,-0.00061102,0.00004730,-0.00015895,-0.00059251,0.0
 0032971,0.00055283,0.00041426,0.00535000,-0.01682502,-0.00145966,-0.00
 151813,0.00330993,-0.00854258,-0.00001535,0.00033629,0.00020287,-0.000
 39603,-0.00037004,-0.00091913,0.00009298,-0.00010040,-0.00002974,-0.00
 427483,0.02473701,0.00453519,0.00094872,0.00201138,-0.00078350,0.00001
 362,-0.00080207,0.00061422,-0.00094321,0.00007129,0.00059644,-0.000068
 89,-0.00017132,0.00054481,0.00049989,0.03070247,-0.03021144,0.03172164
 ,-0.01405896,0.01369680,-0.00929234,0.00213411,-0.00906055,-0.00045429
 ,0.00091585,-0.00023392,-0.00013034,0.00002652,-0.00037592,-0.00060468
 ,-0.00020040,-0.00081326,0.00797901,0.02197971,0.02741494,-0.00749328,
 -0.01537864,-0.02055131,0.00059101,0.00165293,-0.00001064,0.00021997,-
 0.00009273,0.00030840,-0.00001548,0.00001627,-0.00010239,0.00016041,-0
 .00007885,-0.00013551,0.00300094,-0.00488123,-0.00225411,0.00302498,-0
 .01620371,0.00947676,-0.02780101,0.00165319,-0.00859730,-0.00294512,0.
 00002720,-0.00086124,-0.00045180,0.00020293,-0.00023139,0.00007224,0.0
 0018751,-0.00029244,0.00010798,-0.00846758,0.02770332,0.00063115,-0.01
 426597,0.01552896,-0.00942344,0.03054978,0.00874608,-0.00001057,-0.002
 94565,-0.00053605,0.00037769,-0.00064759,0.00024123,-0.00004469,-0.000
 34806,0.00004942,0.00006832,-0.00021166,-0.00006539,-0.00432504,0.0064
 8961,-0.00066002,0.01059544,-0.01258785,0.00153114,-0.02912498,0.05445
 615,-0.01531057,0.00020617,0.00024646,-0.00004625,0.00007863,0.0000559
 5,-0.00001909,-0.00001902,0.00000998,0.00005361,0.00010483,0.00003195,
 0.00003940,-0.00264069,0.00261415,0.00217932,0.00213766,-0.00154908,0.
 00051915,0.02081918,-0.00988705,0.02246384,-0.02068676,0.00025313,-0.0
 0001031,0.00022178,0.00010944,-0.00005877,0.00008122,-0.00000748,0.000
 06829,-0.00009763,-0.00008840,0.00003197,-0.00002629,0.00180601,0.0019
 7441,0.00585196,0.00041214,0.00001371,-0.00005371,-0.01096246,-0.04199
 600,-0.04420494,0.00847763,0.03997671,-0.00004241,0.00021073,0.0003740
 0,0.00001177,-0.00000614,0.00012581,-0.00003395,0.00002949,0.00010580,
 0.00004738,0.00007162,0.00001823,0.00171349,0.00717042,0.00388656,0.00
 165123,-0.00325656,0.00208888,0.02184247,-0.04244715,0.01475026,-0.025
 18997,0.03822760,-0.02134953,-0.03432556,-0.00779673,-0.00122114,-0.01
 851560,-0.00920171,0.03554694,0.01171762,-0.01290101,-0.00247747,-0.01
 171301,-0.01205911,-0.01028928,0.00904364,0.01299590,0.01065334,-0.002
 36414,0.00959916,-0.00142845,0.00272029,-0.00953035,0.00105963,0.01344
 414,0.01350016,-0.00960823,-0.00144810,-0.00147080,0.00085426,-0.01371
 613,0.01344625,0.01355202,-0.00341820,0.00139454,0.00221500,0.00172579
 ,-0.01532913,-0.01645129,-0.00986821,-0.00377355,-0.03387512,0.0005501
 4,0.00052972,-0.00018596,0.00977058,0.00375663,0.03281127,0.00577462,0
 .00933898,0.03086927,0.00105524,0.00059145,0.00043597,0.00246694,0.000
 12105,0.00107706,-0.00366627,0.00909691,0.00008920,0.00129183,0.001135
 34,-0.00158258,-0.00290393,0.00163502,0.00031256,0.00176795,-0.0102385
 7,0.00054675,0.03050066,0.00124366,0.00101523,-0.00120813,-0.00030896,
 -0.00005362,0.00195114,-0.00070466,-0.00277951,-0.03162833,0.00040847,
 0.00047562,-0.00221278,0.00061038,0.00409657,0.00048824,0.00033722,-0.
 00125018,-0.00003749,0.00091871,-0.00237908,-0.00690754,-0.00287119,-0
 .00137431,-0.02941871,-0.00124639,0.00005130,0.00173242,-0.00271926,-0
 .00090288,0.00132880,0.00171375,-0.00065448,-0.00312014,-0.00046703,0.
 00127301,-0.00047350,0.01080308,0.01131422,-0.00627249,-0.00306960,0.0
 0216150,0.00027386,-0.00000401,0.00041492,-0.00212940,-0.00057398,0.00
 599118,-0.00019549,-0.00055585,0.00033489,-0.00577719,-0.01502426,0.01
 810558,0.00397983,-0.00133739,-0.00268966,0.00002219,0.00010063,-0.000
 10124,-0.00039636,-0.00031878,0.00049600,0.00055388,0.00067296,0.00142
 634,0.05079700,-0.01086372,0.01894514,-0.05186300,0.00001591,-0.000964
 35,-0.00009911,0.00039347,0.00017187,-0.00027184,-0.00034425,0.0003188
 0,0.00072100,-0.00011437,-0.00037545,0.00027348,-0.00509510,-0.0119880
 7,0.02081107,0.00454548,0.00969379,0.00517765,0.00351067,-0.00301563,0
 .00040466,0.00008617,-0.00019413,-0.00117245,-0.00081757,-0.00104643,-
 0.00068177,-0.00002071,0.00094584,0.01333013,0.02235873,-0.03880874,-0
 .01855524,-0.02056789,0.04216917,0.00340492,-0.00399845,-0.00136238,-0
 .00028509,-0.00098284,-0.00096800,-0.00030565,0.00020605,0.00026920,0.
 00048683,0.00091976,0.00044436,-0.01457334,-0.00790781,-0.00334482,-0.
 00315114,-0.00080283,-0.00056135,0.14341847,-0.00233300,-0.00266360,0.
 00168395,-0.00038330,-0.00044727,-0.00016913,0.00044233,0.00122583,0.0
 0037001,0.00067463,-0.00045565,-0.00076261,0.01095809,0.00289813,-0.01
 104637,0.00457916,0.00172839,-0.00368419,0.08781609,0.04416422,0.00048
 794,0.00335754,-0.00074117,-0.00005344,0.00052126,0.00073225,0.0004159
 6,-0.00002289,-0.00076058,0.00031324,-0.00036938,-0.00019069,-0.006797
 05,-0.00071484,0.01167411,0.00016728,-0.00013100,0.00142260,0.10926431
 ,0.01589375,-0.18758181,-0.00178279,0.00258406,-0.00031250,0.00016291,
 0.00048755,0.00067304,-0.00000736,-0.00043869,0.00008430,0.00023630,-0
 .00035022,-0.00011174,0.00186462,0.01068738,-0.00149960,0.00005761,0.0
 0140169,0.00205837,-0.12899501,-0.10175401,-0.10379825,0.12846371,0.00
 087616,0.00144586,-0.00103283,0.00008433,0.00018181,0.00022150,-0.0001
 4708,-0.00051843,-0.00025162,0.00009385,0.00019215,0.00032412,-0.01566
 119,-0.00199122,0.00946300,0.00262164,0.00141502,-0.00086520,-0.075249
 97,-0.04645005,-0.01853443,0.08738225,0.04572486,0.00085420,-0.0016661
 6,0.00033670,-0.00020992,-0.00033747,-0.00034464,-0.00008187,0.0000548
 9,-0.00015485,-0.00018996,0.00038162,0.00025224,0.00015111,-0.00608722
 ,0.00012655,0.00031137,-0.00073571,-0.00147268,-0.10374134,-0.00228541
 ,0.17544529,0.10290639,0.01067546,-0.17418861,-0.00988818,-0.02341200,
 -0.05274666,-0.05468656,-0.07752995,-0.11874540,0.00367654,-0.00439056
 ,0.00116604,-0.00218769,-0.00168121,0.00089503,-0.00304333,0.00290692,
 -0.00372357,0.00273031,-0.00746788,0.00155775,-0.00218574,0.00249477,-
 0.00195076,-0.00102134,-0.00000183,-0.00026051,0.00009961,0.00072624,0
 .00032465,0.00140337,0.00038794,0.00245422,-0.00106024,-0.00006849,-0.
 00115809,0.00043893,-0.00010680,-0.00082370,0.00124542,0.00196207,-0.0
 0147241,0.00057048,0.00060092,-0.00021878,-0.00075285,-0.00017899,-0.0
 0282818,-0.00110458,-0.00035972,0.00077947,-0.00093258,0.00030038,0.00
 036202,-0.00042255,0.00036218,0.00030451,-0.00139821,-0.00258742,0.001
 28570,0.00111184,0.00063639,-0.00093035,-0.00020304,-0.00064197,0.0003
 1517,0.00064110,0.00014798,-0.00029300,-0.00178750,0.00109119,-0.00022
 125,-0.00014863,0.00038398,0.00058575,-0.00035471,-0.00020686,-0.00037
 223,-0.00174925,-0.00129405,-0.00055678,0.01192117,0.02703155,0.044170
 41,-0.00044031,-0.00215619,-0.00149434,-0.00001333,-0.00049294,-0.0022
 2076,0.00521044,0.00239058,0.00444664,-0.05047363,0.02702014,0.0390611
 8,0.06989243,0.00055142,0.00530155,0.00412718,0.00021327,-0.00078178,-
 0.00308294,0.00017967,-0.00042712,0.00042578,0.02980449,-0.19835771,0.
 04416345,0.06991058,0.10691350,0.00006891,-0.00029429,-0.00034514,0.00
 105695,0.00035119,0.00609197,0.00030032,-0.00055114,0.00051366,-0.0822
 8470,-0.07186675,-0.16542001,0.00010925,-0.00071882,0.00740921,0.00026
 112,-0.00037915,-0.00027516,0.00005386,-0.00006740,0.00031873,-0.00064
 344,-0.00007119,-0.00050142,0.02403545,-0.01293888,0.03697828,-0.02654
 768,0.00122682,-0.00209739,0.00349570,0.00062834,-0.00064875,0.0004809
 3,0.00015636,-0.00031991,0.00078855,0.00041817,-0.00014151,0.00018731,
 -0.01234739,0.00365020,-0.01622028,0.02586998,-0.01402758,0.00853252,0
 .00031839,0.00943629,0.00030648,-0.00116447,0.00012390,-0.00008538,-0.
 00009072,-0.00039022,0.00031431,-0.00009807,0.00012863,0.03731960,-0.0
 1718622,0.04784348,-0.05258067,0.02560970,-0.05629116,-0.00328540,0.00
 181752,0.00129488,-0.00034533,0.00038287,0.00048132,-0.00007016,0.0001
 8572,0.00037583,-0.00064369,0.00005874,0.00004006,0.01392634,-0.046865
 33,-0.00227207,0.00051940,-0.01506183,0.00632240,-0.02805467,-0.000598
 69,0.01017985,0.00688217,-0.00020534,0.00008679,0.00000617,-0.00032368
 ,0.00034919,-0.00057498,-0.00083953,0.00019361,-0.00050196,-0.04693015
 ,0.14469665,0.00760983,-0.01222995,0.01390564,-0.00693689,0.06854814,-
 0.13850058,-0.00009997,0.01082826,0.00265207,0.00014173,0.00096676,0.0
 0028487,0.00005348,0.00072327,-0.00077685,-0.00045021,0.00049868,-0.00
 004780,-0.00230946,0.00771565,-0.00056619,0.00795716,-0.01156155,-0.00
 235547,-0.01872425,0.02758170,-0.00701555,-0.00040745,0.00003386,0.000
 12706,-0.00013135,-0.00009986,0.00005694,-0.00002946,-0.00020020,0.000
 15864,-0.00006540,0.00006689,0.00005481,-0.00416614,0.00203522,0.00198
 886,0.00221205,-0.00089046,-0.00012928,0.01795353,-0.00742080,0.013431
 52,-0.01536578,-0.00035558,0.00096807,0.00025139,-0.00005867,0.0001774
 0,0.00012294,-0.00002161,-0.00003510,-0.00015573,-0.00020913,-0.000002
 50,-0.00008539,0.00270005,0.00685703,0.01106086,0.00053541,-0.00032068
 ,-0.00045172,-0.00906583,-0.03091116,-0.03675277,0.00647535,0.02326695
 ,-0.00009768,0.00088733,-0.00012055,0.00008072,0.00005566,-0.00003758,
 0.00001837,0.00002341,-0.00003330,0.00013882,-0.00010533,-0.00002998,0
 .00237261,0.00997488,0.00496873,0.00069387,-0.00278034,0.00150454,0.01
 248184,-0.03406605,0.00782492,-0.01568855,0.02601043,-0.01407677,0.050
 52136,0.02610458,-0.11132858,-0.00782373,-0.05890912,0.01776241,-0.023
 80964,0.02204205,-0.01846003,0.02688481,0.01908507,0.04525039,0.060015
 78,-0.02213565,-0.03382857,-0.02016742,0.06484515,-0.00021017,0.023714
 59,-0.05830223,0.00960484,-0.01532249,0.00372634,0.01959306,0.00220953
 ,-0.00095091,-0.00167199,0.01127568,0.00594753,0.04814241,-0.02539801,
 -0.00254222,0.00201916,0.00258213,-0.00654917,-0.04915236,0.01975176,-
 0.02245723,-0.04479495,0.00241936,0.00320419,-0.00582940,-0.02057629,0
 .02389982,0.03705370,-0.01163654,-0.05290163,-0.01271572,-0.00617133,-
 0.00106200,-0.00014785,0.00230777,0.00019204,-0.00091990,0.00577766,-0
 .05636699,0.00562953,0.00213636,0.00040693,0.00406959,-0.00049947,0.00
 398303,-0.00111637,-0.00047983,0.05308544,-0.00629679,-0.01359263,0.00
 122807,-0.00596700,-0.00431022,-0.00092126,0.00050083,-0.00104321,0.00
 179783,0.00242395,0.01160481,-0.00243029,-0.00030312,-0.00365498,0.002
 18259,0.01621144,0.00134176,0.00539083,-0.00157097,-0.00073782,0.00403
 111,-0.00203302,0.01191096,-0.00184715,0.00863579,-0.01836642,0.002663
 94,0.02416203,0.02569677,0.00306734,-0.01609682,-0.00671430,-0.0002439
 6,-0.00054823,-0.00566768,0.00109518,-0.00373385,0.00002256,-0.0582542
 5,0.15510988,0.01648950,0.02490986,0.02849854,-0.00291222,-0.00292045,
 -0.00223222,0.00439671,-0.00437925,0.01244592,0.00143669,0.00091164,0.
 00298155,-0.05592224,-0.00287009,-0.09770059,0.00010007,-0.00201219,0.
 00436321,-0.00032779,0.00054928,0.00000058,0.00005701,0.00018746,0.001
 17642,-0.00087265,-0.00014629,-0.00111557,0.01788204,-0.00314771,0.037
 78489,-0.01707819,0.00110340,-0.00471944,0.00097249,-0.00120165,0.0017
 8703,-0.00085332,0.00028008,0.00010262,0.00130192,0.00031114,0.0001117
 4,0.00027138,-0.00809404,-0.00868247,-0.01455501,0.00441985,0.01094988
 ,0.00616211,-0.00411540,0.00440381,-0.00101035,0.00200620,-0.00062576,
 -0.00048985,0.00009571,-0.00037556,0.00086788,0.00057901,0.00054484,0.
 03492966,-0.00647692,0.04693739,-0.03900142,0.00870976,-0.05029960,0.0
 0163973,0.00088885,-0.00074578,0.00005387,-0.00080562,-0.00008559,0.00
 010943,-0.00053338,0.00012610,-0.00099192,0.00033067,-0.00041575,-0.00
 753032,0.05354235,-0.00198487,-0.00002985,0.00419112,-0.00228230,-0.01
 027965,0.00091891,-0.00803526,-0.00452959,0.00027732,-0.00269250,-0.00
 099857,-0.00021043,0.00091430,0.00047099,-0.00043920,0.00127644,0.0001
 8114,0.05621366,-0.15084405,-0.00255725,0.00094128,0.00002335,-0.00009
 417,-0.04928526,0.20160830,-0.00072867,-0.00457891,-0.00142198,0.00053
 967,-0.00276681,-0.00089479,-0.00027844,0.00107342,-0.00080625,-0.0002
 6918,0.00030881,-0.00006714,-0.00044259,-0.00692054,0.00789381,-0.0041
 5842,0.00521338,-0.00093244,-0.02091269,0.04449798,-0.02335943,0.00216
 250,-0.00003059,-0.00042245,-0.00018120,-0.00007100,-0.00007134,0.0001
 0090,-0.00073337,0.00005557,-0.00032395,0.00055436,0.00023679,-0.00084
 521,0.00127711,0.00071154,0.00026936,-0.00100989,0.00082428,0.01702871
 ,-0.00841628,0.02625032,-0.01821110,0.00054356,0.00089890,0.00001531,0
 .00008587,-0.00050828,-0.00005938,-0.00003497,-0.00036154,-0.00027219,
 -0.00028097,0.00005970,-0.00014943,0.00037725,0.00063351,0.00146056,-0
 .00079166,0.00042729,-0.00070421,-0.00832873,-0.04225059,-0.03682733,0
 .00842966,0.04110100,-0.00009091,-0.00092241,0.00172934,0.00001920,-0.
 00031543,-0.00031332,0.00007001,0.00032836,-0.00011741,0.00014327,-0.0
 0052623,-0.00011389,0.00019193,0.00293019,0.00117561,0.00095031,-0.001
 06060,0.00034734,0.02630089,-0.03697054,0.01958822,-0.02758470,0.03653
 667,-0.02229589,-0.11040010,-0.00043258,0.01349816,-0.04532064,-0.0396
 5836,0.09689961,0.03480093,-0.03704080,-0.00593735,-0.03223926,-0.0325
 7140,-0.02896173,0.02537787,0.03333477,0.02760056,-0.00583471,0.028150
 82,-0.00583993,0.00608212,-0.02523958,0.00463864,0.03302106,0.02481833
 ,-0.01881999,-0.00256591,-0.00281115,0.00203686,-0.03153709,0.02448864
 ,0.01689053,0.00351789,0.00167440,0.00614863,0.00032546,-0.02709497,-0
 .02339852,-0.01853250,0.00448625,-0.07323601,0.00072176,0.00021561,0.0
 0019818,0.01801175,-0.00359375,0.05974747,0.02656880,0.00864652,0.0619
 8874,-0.00007515,0.00199031,0.00031559,0.00449935,-0.00007707,0.001792
 58,-0.01557503,0.00918920,-0.00060404,0.00402375,0.00452286,-0.0039179
 7,-0.00386061,0.00171491,0.00001670,0.00275251,-0.00920592,0.00362230,
 0.06277937,0.00356718,-0.00263856,-0.00212656,-0.00078149,0.00021224,0
 .00282722,-0.00017402,-0.00451631,-0.05820150,0.00141273,0.00713969,0.
 01685840,0.00153897,0.00518441,-0.00055890,0.00006990,-0.00286466,-0.0
 0284269,0.00168027,-0.00509490,-0.01781001,-0.00667330,-0.00610826,0.0
 4182776,0.00133524,-0.00109183,0.00466554,-0.00343093,-0.00111759,0.00
 096751,0.00412115,0.00025435,-0.00554149,-0.00169386,0.00142023,-0.004
 37660,0.00173045,-0.00400551,0.01024015,0.00632778,-0.01576516,0.00046
 817,0.00000178,0.00167722,-0.00379697,-0.00047852,0.01862952,-0.003344
 64,-0.00345975,0.00034793,0.01807811,0.01438533,-0.03782633,-0.0006678
 9,-0.00038430,0.00248003,0.00038012,0.00016439,-0.00003687,-0.00010025
 ,-0.00006663,0.00273601,0.00084953,0.00038581,0.00081837,-0.04234305,0
 .00814924,-0.01922428,0.04264042,0.00262125,0.00087429,-0.00087300,0.0
 0091894,0.00033542,-0.00049342,-0.00113704,-0.00035096,0.00144893,-0.0
 0061455,-0.00024913,0.00104246,0.00512904,0.00998527,-0.01910273,-0.00
 817216,-0.01110641,-0.00173370,-0.00052195,-0.00020651,0.00097290,0.00
 032545,-0.00071564,-0.00094643,-0.00042256,0.00046689,-0.00282343,-0.0
 0094356,-0.00061567,-0.00769096,-0.01687484,0.03235931,0.01269393,0.01
 872204,-0.03153595,-0.00029828,0.00294342,0.00047475,0.00013096,-0.000
 03145,0.00028036,-0.00023060,-0.00026789,0.00019633,0.00121471,0.00010
 069,0.00016112,0.00635462,-0.00843967,0.00112649,-0.00077533,0.0016210
 2,-0.00106636,-0.01499755,-0.00419468,-0.00040504,0.00267176,0.0001177
 7,0.00001423,0.00005535,0.00057649,0.00060832,0.00030498,0.00078774,-0
 .00030816,-0.00080105,-0.00413025,-0.00523583,0.00430267,-0.00014408,0
 .00061918,-0.00045670,0.00379472,0.00455490,-0.00144035,-0.00237622,0.
 00070340,-0.00012364,0.00000407,-0.00014511,0.00063164,0.00078344,-0.0
 0109261,0.00050546,-0.00006584,-0.00019151,-0.00319246,0.00541447,-0.0
 0111765,0.00128592,-0.00070603,0.00015634,-0.00393412,-0.00696018,0.01
 044087,0.00011710,-0.00008956,-0.00004994,0.00012720,-0.00014538,0.000
 02130,-0.00024387,-0.00033674,0.00016897,0.00032781,-0.00003426,-0.000
 14975,-0.00148612,-0.00177162,-0.00354703,0.00001645,-0.00036650,0.000
 59406,0.00860147,0.00319228,0.00626756,-0.00746003,-0.00043568,-0.0002
 0034,0.00027454,-0.00009701,-0.00010155,0.00009446,-0.00018772,-0.0001
 6905,-0.00007305,0.00016683,0.00002006,0.00011079,0.00065492,-0.000209
 09,-0.00197655,0.00006773,-0.00010767,0.00017211,0.00027914,0.00015238
 ,0.00390629,-0.00044822,0.00061524,-0.00015761,0.00002450,0.00008316,-
 0.00005740,0.00009628,-0.00002559,0.00005592,0.00004205,-0.00019713,-0
 .00023280,0.00014078,0.00026218,0.00168872,0.00136008,0.00169516,-0.00
 075311,-0.00003826,0.00009124,0.00276145,0.00088317,-0.00875372,-0.003
 30517,-0.00250859,0.00684470,-0.03639739,-0.03206370,0.03231574,-0.008
 18142,-0.00903478,-0.06130485,0.01162465,-0.00882305,0.00728178,-0.011
 39615,-0.00637262,-0.02218611,-0.02555370,0.00791091,0.01348877,0.0086
 9666,-0.02955561,0.00118545,-0.00975788,0.02222337,-0.00572915,0.01216
 072,0.00418900,-0.01399043,-0.00072647,0.00084422,0.00033795,-0.008302
 24,0.00340741,-0.01605754,0.00729787,0.00099675,-0.00112016,-0.0008048
 1,-0.00254418,0.01658647,-0.01311763,0.00709481,0.01218794,-0.00028513
 ,-0.00070802,0.00176199,0.01284149,-0.00738733,-0.01095048,0.00893960,
 0.02091466,-0.00432625,0.00170233,0.00043301,0.00038104,-0.00319068,-0
 .00048941,0.00107083,-0.00663981,0.02172310,-0.00326687,-0.00119806,0.
 00009774,-0.00188660,0.00028659,-0.00209035,0.00042917,0.00111549,-0.0
 2045945,0.00371109,-0.00518345,-0.00103885,0.00261715,0.00089871,0.000
 48804,0.00009992,0.00179840,0.00039238,-0.00174706,0.00317811,0.000526
 20,0.00026280,0.00687571,0.01410396,0.02250600,-0.00126811,-0.00315647
 ,-0.00002132,0.00053664,-0.00102779,0.00107267,-0.00090759,0.00148793,
 -0.00038560,0.05278531,0.01347306,0.00832788,0.02791768,-0.00040829,0.
 01213878,0.00771024,-0.00084032,-0.00048299,0.00045358,0.00013940,0.00
 093338,-0.00097465,-0.14905477,0.22345430,0.02214134,0.02894797,0.0509
 5252,0.00156534,0.00322254,0.00204549,-0.00113982,0.00120795,0.0000815
 9,0.00115679,0.00016687,0.00010991,0.04088904,-0.10002862,-0.01590975,
 -0.00127958,0.00135518,-0.00411757,0.00041734,-0.00036899,0.00003356,-
 0.00018066,-0.00043825,-0.00150153,-0.00005882,-0.00009229,-0.00018499
 ,-0.04158661,0.05318216,-0.06088409,0.04196362,0.00002572,0.00117412,-
 0.00027329,0.00053092,-0.00091661,0.00018405,0.00005622,-0.00002399,-0
 .00024313,0.00011239,0.00010293,0.00021425,0.04868519,-0.02912143,0.05
 433052,-0.06286927,0.04067928,-0.00488509,0.00189790,-0.00516155,0.000
 55316,-0.00128564,0.00042747,-0.00014911,-0.00031851,-0.00095829,-0.00
 113378,-0.00085212,-0.00120690,-0.06348026,0.06167452,-0.05357335,0.07
 220874,-0.06506034,0.05589194,-0.00292629,0.00056088,0.00152701,-0.000
 40672,0.00096098,0.00064581,-0.00011718,0.00024556,-0.00004562,0.00002
 362,-0.00078877,-0.00051921,-0.00613567,0.07962758,-0.01152755,-0.0016
 1136,0.01574569,-0.00386167,-0.05045476,-0.00011981,-0.00393741,-0.000
 35438,-0.00036429,-0.00053656,-0.00063760,0.00053000,0.00070858,0.0002
 1899,-0.00028331,0.00003788,0.00058011,0.08664103,-0.22475251,-0.00503
 409,0.01051227,-0.01394603,0.00546900,-0.06681069,0.36714308,0.0011341
 3,0.00075736,-0.00137378,-0.00011935,0.00152655,0.00022404,0.00018468,
 -0.00049290,-0.00046535,-0.00029344,0.00000199,0.00006459,-0.00747878,
 -0.01648781,0.00733813,-0.00688291,0.01401579,0.00316970,-0.04447847,0
 .12987704,-0.04449877,0.00100258,-0.00023693,-0.00069913,0.00005313,-0
 .00025104,-0.00031581,-0.00018014,-0.00015010,-0.00003510,0.00013135,0
 .00012210,0.00039802,-0.01029968,0.00388118,0.00779895,0.00233607,-0.0
 0228686,0.00074801,0.06162836,-0.03010520,0.05793415,-0.05467168,-0.00
 007316,0.00363018,0.00119865,0.00005930,0.00101849,0.00059376,-0.00014
 460,-0.00003954,-0.00054439,-0.00036730,-0.00006098,-0.00018748,0.0023
 2092,0.00950258,0.01718687,-0.00128080,0.00205172,-0.00152480,-0.02954
 122,-0.12471703,-0.12919801,0.02902685,0.10861458,-0.00060454,0.000931
 19,0.00089713,-0.00013663,0.00008686,-0.00001520,0.00011684,0.00010535
 ,0.00008966,-0.00003331,-0.00004696,-0.00020042,0.00689825,0.01973506,
 0.00895546,0.00132878,-0.00316784,0.00141098,0.05825970,-0.13011907,0.
 03554144,-0.06582908,0.11247539,-0.04667905,0.06941245,0.00763748,-0.0
 0484959,-0.04031120,-0.04621505,0.00429063,-0.02028746,0.01845320,-0.0
 0814205,0.01549201,0.01448375,0.01917595,0.03979221,-0.01469156,-0.013
 33118,-0.01043390,0.04627487,0.00089926,0.01192832,-0.03341782,0.00317
 980,-0.02926760,-0.01970520,0.02327485,0.00076937,-0.00183659,-0.00058
 702,0.01819564,-0.01984978,-0.01854261,0.01460089,-0.00062333,0.004411
 97,-0.00310506,0.01916277,0.01473798,0.02239465,0.01102989,0.02868351,
 -0.00128231,-0.00176805,0.00028099,-0.01952173,-0.00865110,-0.02319388
 ,-0.01676043,0.00516729,0.04194459,0.00325086,-0.00140476,-0.00072028,
 0.00867091,0.00138776,-0.00313209,0.01314239,0.00790095,-0.00150098,0.
 00691494,-0.00330357,0.00330664,-0.00097341,0.00267029,-0.00034502,-0.
 00380599,-0.00477859,-0.00155920,0.04431949,0.00625740,-0.00086456,-0.
 00042082,-0.00119061,-0.00109547,-0.00413933,-0.00337673,0.00360398,-0
 .03540735,-0.00070007,-0.00184396,-0.00220848,-0.01078486,-0.02110193,
 0.00134514,0.00289984,-0.00030749,0.00132548,-0.00096220,0.00158857,-0
 .00964018,-0.00270655,-0.00514338,0.03787075,-0.00903713,0.00177021,-0
 .01771944,0.00022889,-0.01347505,-0.00888315,0.00028429,0.00019302,0.0
 0343088,-0.00125521,0.00040257,-0.00038031,0.07552673,-0.22967750,-0.0
 2009274,-0.02057352,-0.03779106,-0.00184954,-0.00452157,-0.00307203,0.
 00106010,0.00070328,-0.01111720,-0.00305762,-0.00205837,-0.00036144,0.
 09346752,-0.01348159,0.15219716,0.00278455,-0.00154761,0.00296658,-0.0
 0053152,0.00075928,-0.00005225,-0.00004250,0.00047520,-0.00013160,0.00
 069955,0.00042977,0.00114554,-0.03672720,0.00351439,-0.07323069,0.0352
 3246,-0.00098510,0.00076635,-0.00140971,-0.00059006,0.00114691,-0.0001
 6802,-0.00009298,-0.00012613,-0.00068872,-0.00011247,-0.00024177,-0.00
 006461,0.00826781,0.02246493,0.02106998,-0.01305999,-0.01245041,0.0032
 9134,-0.00232834,0.00445199,-0.00083134,0.00203567,-0.00041347,0.00054
 094,0.00056114,0.00110162,-0.00016793,0.00049891,0.00047538,-0.0704866
 2,0.01330716,-0.09807538,0.07327353,-0.02028893,0.09370105,-0.00285822
 ,0.00058319,0.00132556,-0.00008664,-0.00026795,0.00009200,0.00019045,0
 .00022634,-0.00003763,0.00031106,-0.00012984,-0.00020117,0.02100904,-0
 .06970721,-0.00324466,-0.00481452,0.00754258,-0.00480761,-0.05518200,-
 0.00005413,0.00236672,0.00327747,0.00036959,-0.00100163,0.00016254,-0.
 00058072,-0.00049092,0.00051425,0.00102574,-0.00006386,-0.00050129,-0.
 07219423,0.19295317,-0.00556256,0.00908193,-0.01160218,0.00767479,0.08
 343209,-0.10144019,0.00095768,0.00431822,0.00059312,0.00046006,-0.0008
 7851,0.00000632,-0.00051066,-0.00057420,0.00042341,0.00047309,0.000017
 88,-0.00012398,-0.00468047,-0.00150098,-0.01015514,-0.00391900,0.00516
 096,-0.00262528,-0.01488788,0.08726264,0.00948860,-0.00081480,0.000196
 50,0.00004360,0.00004824,0.00005799,0.00008062,0.00015824,0.00018324,0
 .00012213,0.00032584,-0.00008247,-0.00015297,-0.01297456,0.00044524,0.
 00694765,0.00339918,-0.00096979,-0.00081231,0.04143082,-0.02108027,0.0
 2210719,-0.03157298,-0.00009604,0.00081394,0.00075869,0.00015684,-0.00
 023362,0.00011004,0.00009814,0.00016169,-0.00006116,-0.00002977,0.0000
 0162,-0.00004379,-0.00004654,0.02536864,0.02442435,0.00034703,0.000042
 30,-0.00146040,-0.02167921,-0.08072113,-0.09380602,0.02124955,0.054566
 55,-0.00012531,0.00123652,-0.00026288,0.00013769,-0.00005131,0.0002146
 1,-0.00011716,-0.00015822,0.00021758,0.00006760,0.00010609,0.00021004,
 0.00666381,0.02522743,0.00837510,-0.00005211,-0.00361095,0.00138409,0.
 02176138,-0.09282784,0.00239295,-0.02833591,0.07007828,-0.01253149,0.0
 4151730,-0.07805507,0.01588207,-0.11148339,-0.16573490,-0.19555658,-0.
 02471536,0.02685188,-0.00857545,0.01621860,0.02468359,0.00650351,0.049
 81313,-0.02193524,-0.01097401,-0.00982717,0.05335377,0.00478702,0.0125
 9166,-0.04258521,-0.00327171,-0.02339580,-0.01832626,0.01137611,0.0005
 5963,-0.00192682,-0.00115857,0.01466787,-0.01925092,-0.04844453,0.0293
 6195,-0.00051041,0.00751978,-0.00693914,0.02101666,0.04124236,0.013032
 63,0.02594838,0.05984723,-0.00214545,-0.00391557,0.00224971,-0.0089818
 6,-0.02040569,-0.05260344,-0.00730592,0.03782595,0.05255308,0.00792825
 ,-0.00269729,-0.00039963,0.00630065,0.00070434,-0.00252642,0.00292964,
 0.04155334,-0.00911029,0.01017097,-0.00615919,0.00433081,-0.00161703,0
 .00137885,0.00016450,-0.00315418,-0.03425206,0.00363164,0.05251448,0.0
 0900748,0.00442018,-0.00059365,-0.00130044,-0.00192835,-0.00308609,-0.
 00293902,0.00204593,-0.04568180,-0.00207938,-0.00325347,0.01325111,0.0
 3170516,0.05309616,0.00048578,0.00151787,-0.00082968,0.00187992,-0.002
 07181,0.00373178,-0.01106608,-0.00243926,-0.00431644,-0.03722220,0.030
 88087,0.03137319,0.07319191,0.00179601,-0.00653222,-0.00172182,-0.0024
 2790,-0.00048319,0.00214485,-0.00232488,0.00104179,-0.00356636,-0.0763
 8643,0.16777227,0.05262028,0.07453812,0.12091211,-0.00066899,-0.002176
 14,-0.00081873,0.00097532,0.00124813,-0.01180935,-0.00169961,-0.002274
 89,-0.00038862,-0.11632827,-0.03193914,-0.20141076,0.00024218,0.000588
 65,0.00353770,-0.00014625,0.00069520,-0.00000450,-0.00002894,-0.000221
 05,-0.00264513,0.00014578,0.00025674,0.00065807,0.03783441,-0.01112097
 ,0.06834678,-0.03841867,0.00079402,-0.00272652,0.00071347,-0.00027894,
 0.00047570,-0.00023989,0.00043570,0.00011546,-0.00053395,0.00013919,0.
 00015774,0.00085319,-0.01335268,-0.01328758,-0.02488991,0.01684587,0.0
 0793761,0.00365628,0.00037832,0.00447337,-0.00056696,0.00135095,-0.000
 04358,0.00069012,0.00038698,-0.00074902,-0.00236586,-0.00094838,-0.000
 96552,0.06705843,-0.02124542,0.08930349,-0.07295482,0.02504639,-0.0924
 7768,-0.00001777,-0.00032544,-0.00099066,-0.00010041,-0.00022079,-0.00
 032406,0.00001610,0.00000903,-0.00015740,0.00089022,-0.00020976,0.0004
 8851,-0.01313311,0.05976119,0.00112556,0.00248644,-0.00486473,0.003601
 38,0.03050340,-0.00034135,0.00554667,0.00237092,0.00031244,-0.00093013
 ,-0.00003820,-0.00024950,-0.00020494,-0.00021700,0.00036608,-0.0001739
 2,-0.00017643,0.06023351,-0.16276524,0.00019035,-0.00650180,0.00716058
 ,-0.00565413,-0.06495215,0.11101887,-0.00099981,0.00239700,0.00022451,
 -0.00001618,-0.00090903,-0.00053126,0.00010870,-0.00067009,0.00092561,
 0.00040556,-0.00024173,0.00002049,0.00139818,-0.00058089,0.00925073,0.
 00265632,-0.00298064,0.00117901,0.00302145,-0.04527202,-0.01550730,0.0
 0042427,-0.00026487,0.00048645,-0.00023024,-0.00011652,-0.00004806,0.0
 0000059,0.00032416,-0.00030816,0.00017747,-0.00012867,0.00001691,0.007
 97017,-0.00017789,-0.00437106,-0.00211496,0.00028157,0.00088142,-0.020
 64487,0.01113277,-0.00657421,0.01441757,-0.00026448,0.00097590,0.00011
 254,-0.00007655,-0.00039344,-0.00021247,0.00009926,0.00009056,0.000133
 17,0.00023866,-0.00004227,0.00020095,0.00079364,-0.01711902,-0.0146965
 3,-0.00054263,0.00016700,0.00068528,0.01080265,0.04034811,0.04825740,-
 0.01105056,-0.02402684,0.00048670,0.00011183,0.00089215,-0.00002498,-0
 .00027771,-0.00044310,0.00007626,-0.00004312,0.00009333,-0.00028531,0.
 00014462,0.00004937,-0.00381016,-0.01628314,-0.00503888,0.00040559,0.0
 0203134,-0.00072008,-0.00676479,0.04879652,0.00443819,0.00991669,-0.03
 448034,0.00072901,0.05692696,0.10485769,-0.05678752,-0.11698593,0.0428
 0970,-0.00068515,0.01876219,-0.02539151,0.01115596,-0.00738666,-0.0235
 5480,0.00390089,-0.03791279,0.02117330,-0.00070432,0.01221664,-0.04091
 222,-0.00071884,-0.01720491,0.02802529,-0.00128052,-0.05753733,-0.0292
 7424,0.04902585,0.00158399,0.00174006,0.00236154,0.03175572,-0.0278471
 9,0.03296267,-0.01986388,0.00132822,-0.01032148,0.00767267,0.02276708,
 -0.01858866,0.05169013,-0.01825529,0.00678775,0.00358501,0.00534575,-0
 .00563009,-0.04623482,0.02104150,-0.00556761,-0.01625948,-0.05278002,0
 .05414830,-0.01201900,0.00377505,-0.00055600,0.02104301,0.00558652,-0.
 00758774,0.01181153,-0.05403758,0.01023628,0.00692050,0.00623402,-0.00
 616870,0.00069258,0.00350920,-0.00192622,-0.00880914,0.04341513,-0.001
 49713,0.05158149,0.00503493,-0.01176222,-0.00059736,-0.00032351,0.0038
 1862,-0.00769891,-0.01012046,0.00938526,-0.04245676,0.00541637,-0.0027
 1561,-0.00377071,0.00290968,0.00485589,-0.00202139,-0.00275377,0.00280
 243,0.00473351,-0.00333489,-0.00074112,-0.00411474,0.00121099,-0.00081
 873,0.02507797,-0.00029793,0.01067488,0.00897601,-0.00303414,0.0121903
 5,0.00480296,0.00129224,-0.00264369,0.00021856,-0.00024494,-0.00047434
 ,-0.00078294,-0.03455702,0.03516080,0.00300412,0.01421457,0.00739631,0
 .00264043,0.00526082,0.00263826,0.00284073,0.00043446,-0.00436487,-0.0
 0256964,-0.00617793,0.00231441,0.02389477,-0.03511896,0.01698119,0.002
 31149,0.00006858,-0.00091865,0.00106033,-0.00057408,0.00038324,-0.0018
 3141,0.00149297,-0.00100960,-0.00040653,-0.00036707,-0.00012340,-0.018
 36114,0.02165498,-0.02971662,0.01726084,0.00032331,0.00096508,-0.00058
 799,0.00060335,-0.00054947,0.00030850,0.00042052,0.00025794,-0.0003292
 4,-0.00034990,-0.00085009,0.00076430,0.02130771,-0.01082709,0.02422397
 ,-0.02329916,0.01136000,-0.00077171,-0.00100428,0.00105811,0.00106314,
 -0.00161429,0.00142680,-0.00025044,0.00057510,-0.00121430,-0.00149194,
 0.00158351,-0.00153103,-0.02991696,0.02479114,-0.02705623,0.03127007,-
 0.02564851,0.02613839,-0.00026883,-0.00022505,-0.00126080,-0.00006852,
 0.00023704,0.00008274,0.00008824,0.00010196,0.00031786,-0.00001409,0.0
 0000936,0.00022939,-0.00336274,0.01476099,0.00069572,0.00051808,0.0008
 5398,-0.00002808,0.00713947,0.00097695,-0.00177163,0.00032808,-0.00079
 612,0.00119450,-0.00059015,-0.00063505,0.00027906,0.00061756,0.0005150
 4,0.00066589,-0.00014013,0.01473766,-0.03989217,0.00021420,0.00111908,
 -0.00061950,0.00098666,-0.01783444,0.03262534,-0.00056680,-0.00163476,
 -0.00144585,-0.00051373,0.00109707,-0.00024089,-0.00010087,0.00030151,
 0.00061600,0.00051452,0.00055366,0.00033174,0.00068223,0.00025216,0.00
 268855,0.00012499,0.00055376,0.00136093,0.00019934,-0.01070319,-0.0051
 3959,-0.00016431,-0.00016514,-0.00002061,0.00008905,-0.00004281,-0.000
 08567,0.00016426,-0.00009467,-0.00001972,-0.00004070,0.00002595,-0.000
 11571,0.00181924,0.00042582,-0.00078951,-0.00055167,0.00014019,0.00012
 592,-0.00403161,0.00191688,-0.00033967,0.00271573,-0.00042045,-0.00018
 065,-0.00066962,-0.00011711,0.00045823,0.00000037,0.00018020,-0.000019
 62,0.00017029,0.00008311,0.00001431,0.00015145,0.00047963,-0.00418875,
 -0.00305113,-0.00009530,0.00026312,0.00033066,0.00209615,0.00751850,0.
 00957978,-0.00220623,-0.00386515,-0.00016793,-0.00025266,-0.00063012,-
 0.00012854,0.00012167,-0.00001334,0.00005693,-0.00004091,-0.00001213,-
 0.00000073,-0.00017957,0.00015883,-0.00075852,-0.00313893,-0.00059761,
 -0.00001001,0.00071521,-0.00018267,-0.00023616,0.00928697,0.00182911,0
 .00124497,-0.00651179,-0.00055207,0.09745509,-0.11728676,-0.09511729,-
 0.02792935,0.08305684,-0.00233059,-0.06144090,0.06201074,0.00803121,0.
 03944513,0.05305495,0.04836044,-0.04295454,-0.05021694,-0.04043783,0.0
 0823266,-0.04836803,0.01308096,-0.01288881,0.03473694,0.00099277,-0.01
 276533,0.00313055,0.01283221,0.00305747,0.00452446,0.00436513,0.012297
 22,0.00765883,0.05681704,-0.03656591,0.00258055,-0.01937753,0.01096139
 ,-0.01304532,-0.03792163,0.01217101,-0.03456705,-0.01957739,0.00452907
 ,0.00768522,-0.00696132,-0.01548245,0.02839707,0.01553723,-0.02042493,
 0.05256606,0.00905220,0.01708712,-0.00734254,0.00094647,-0.00158165,0.
 00052637,-0.00034225,0.01423447,0.05665194,-0.01023613,-0.00226832,-0.
 01103601,0.01287296,0.00045639,0.00046462,0.00054795,-0.00082367,-0.04
 411820,-0.00581769,0.00813614,0.00045109,0.00618542,0.00009979,0.00003
 859,-0.00667993,-0.00037785,-0.00072293,0.00103427,-0.00669120,0.00451
 557,0.00167106,-0.00373372,0.00088185,-0.00021000,0.00172659,-0.001260
 20,-0.00101559,0.00036377,0.00255882,-0.00203668,-0.01050566,-0.001480
 78,-0.00128182,0.01829255,-0.00120650,0.00035162,-0.00014646,-0.001077
 34,-0.00104159,0.00067449,0.00484496,-0.00106739,-0.00146268,-0.002465
 20,0.00355749,-0.00336340,-0.00001627,-0.00230632,-0.00302852,-0.00242
 202,0.00337592,0.00107614,0.00152592,-0.00068445,-0.00091656,-0.003672
 12,0.01013862,-0.00205037,-0.00023240,-0.00248638,0.00746194,0.0066085
 8,-0.01598292,0.00065224,-0.00228300,-0.00199839,0.00029322,0.00037816
 ,0.00013332,-0.00141584,0.00040178,0.00106557,0.00036021,-0.00021893,0
 .00044653,-0.00578309,0.00220630,-0.00141680,0.00576359,0.00021624,-0.
 00081212,-0.00069780,-0.00040118,-0.00004483,0.00035627,-0.00028924,0.
 00008120,0.00004767,0.00043766,0.00016785,0.00016745,0.00072122,0.0017
 5726,-0.00219103,-0.00097836,-0.00141122,0.00133776,0.00201210,0.00015
 987,0.00009282,-0.00013533,-0.00024822,-0.00117109,0.00048435,-0.00009
 363,-0.00101166,-0.00159653,0.00090027,-0.00162160,-0.00317312,0.00402
 081,0.00179172,0.00247680,-0.00434734,0.00030961,0.00061774,0.00005557
 ,-0.00007597,0.00056651,0.00024725,0.00009266,-0.00015705,0.00012731,0
 .00057937,-0.00008908,-0.00026400,0.00005237,-0.00240415,-0.00022087,0
 .00009671,0.00039686,0.00040398,-0.00090680,0.00048642,0.00035160,-0.0
 0021122,-0.00151226,-0.00032484,0.00099696,0.00023519,0.00110052,0.000
 59571,0.00036755,-0.00105839,-0.00086763,-0.00124972,-0.00129021,0.000
 69705,0.00043877,0.00028292,-0.00010450,0.00261929,0.00195826,0.000834
 70,-0.00001629,-0.00066126,-0.00085507,-0.00066562,0.00040077,0.000622
 66,0.00109012,0.00000967,0.00026857,-0.00047854,-0.00072368,-0.0018433
 1,0.00083042,0.00124429,0.00015696,-0.00016639,-0.00037994,0.00114072,
 -0.00139446,-0.00105710,-0.00005205,0.00036282,0.00016655,-0.00009266,
 0.00029561,-0.00002044,-0.00004829,-0.00052397,-0.00003157,0.00025108,
 -0.00017356,-0.00006759,-0.00041281,0.00011819,-0.00090497,0.00003296,
 -0.00010319,0.00017806,-0.00014795,-0.00138525,-0.00032522,0.00046973,
 0.00042488,0.00028485,-0.00021260,-0.00034756,-0.00000679,0.00018557,0
 .00013477,-0.00018015,0.00012774,0.00002830,-0.00003405,-0.00021876,-0
 .00015491,0.00003913,-0.00031398,0.00005528,-0.00002106,0.00003623,-0.
 00155011,-0.00101985,0.00080076,0.00140935,0.00093792,0.00024559,-0.00
 014663,-0.00023293,-0.00008516,-0.00023118,0.00009941,0.00012795,0.000
 02803,-0.00008746,-0.00017177,0.00042748,0.00009898,0.00054706,0.00003
 216,0.00037411,-0.00017892,0.00000702,-0.00001182,-0.00148995,0.000288
 09,0.00116725,0.00100518,-0.00040496,-0.00140754,0.00958318,-0.0220309
 9,-0.04706255,-0.02920096,-0.07450866,-0.07102533,-0.00445657,-0.00031
 135,-0.00185641,0.00263815,0.00012122,0.01493608,0.01080141,0.00013903
 ,-0.01281704,-0.00160670,0.01009533,-0.00022536,0.00328704,-0.00756228
 ,0.00167654,-0.00074401,-0.00004332,0.00019405,0.00013469,-0.00002538,
 -0.00007768,0.00205493,0.00063308,-0.00124667,0.00399852,-0.00067754,0
 .00063745,-0.00061714,0.00033913,0.00102839,0.00116611,0.00477631,-0.0
 0452500,-0.00032419,-0.00062027,0.00045065,-0.00099488,-0.00425202,-0.
 00161406,-0.00703081,0.00169742,-0.00078596,0.00093228,-0.00047237,0.0
 0011989,-0.00142500,-0.00012769,0.00052807,0.00330191,0.00100478,0.000
 28570,0.00206324,-0.00021482,0.00054337,-0.00065791,-0.00067576,0.0006
 0881,0.00095466,-0.00231633,-0.00100497,-0.00176728,0.00131214,0.00022
 944,0.00013852,-0.00001032,-0.00025279,-0.00008894,0.00040092,-0.00095
 160,-0.00201902,-0.00271788,-0.00082746,0.00157604,0.01710972,0.042027
 70,0.00035644,0.00135210,-0.00198241,0.00089413,0.00122224,0.00064292,
 0.00459614,0.00171458,0.00315514,0.26495635,0.02005869,0.03143721,0.06
 136242,0.00096227,-0.00277581,-0.00121389,0.00120027,-0.00019933,0.000
 98455,0.00224624,-0.00011809,0.00203376,-0.23975948,-0.07417490,0.0437
 2985,0.05654596,0.08594916,-0.00220749,-0.00057716,-0.00188995,0.00134
 706,0.00059609,0.00796600,0.00274555,0.00159023,0.00418230,0.44492966,
 -0.38112975,0.41436696,0.00041906,0.00157109,-0.00822759,0.00046324,-0
 .00064079,0.00002720,-0.00081998,-0.00116141,-0.00124154,-0.00043030,0
 .00034425,0.00008910,-0.28504895,0.25969879,-0.49088423,0.28995031,-0.
 00026524,0.00481007,-0.00112709,0.00019526,0.00085044,0.00068273,-0.00
 037535,-0.00066076,-0.00055608,-0.00010135,-0.00008033,-0.00016913,0.2
 6194715,-0.08164113,0.31870034,-0.27262027,0.08828418,-0.00928746,0.00
 187185,-0.00807510,0.00050988,-0.00068256,0.00065868,-0.00048565,-0.00
 022462,-0.00108216,-0.00047050,-0.00105671,-0.00205211,-0.48958627,0.3
 1502857,-0.51036120,0.50325294,-0.32811646,0.51788529,0.00119749,0.002
 42071,-0.00309763,0.00007938,-0.00041707,0.00020006,-0.00012322,-0.000
 30949,-0.00000233,0.00013854,0.00023330,0.00062364,0.00696716,-0.04559
 830,0.00432655,-0.00390120,0.00966927,-0.00400096,0.01022798,0.0005955
 6,-0.00116029,-0.00197763,0.00004725,-0.00081194,-0.00028158,-0.000507
 91,-0.00023900,-0.00149307,-0.00095360,-0.00023737,-0.00094221,-0.0442
 5647,0.13364072,0.01168559,0.01120525,-0.01131748,0.01063074,0.0267394
 9,-0.14619047,-0.00415140,0.00100314,-0.00225041,0.00046819,-0.0010397
 3,-0.00002633,0.00008884,0.00011425,-0.00026002,-0.00026726,-0.0002873
 3,-0.00052341,0.00510121,0.00949424,0.00201129,-0.00311424,0.00812231,
 0.00156959,0.01099859,-0.04819892,0.00308257,-0.00054438,-0.00041328,0
 .00094680,-0.00014761,-0.00005674,0.00003260,0.00002846,0.00008168,0.0
 0022584,-0.00008276,-0.00009001,-0.00013116,0.00570269,0.00119153,-0.0
 0398695,-0.00063218,0.00155054,0.00006801,-0.01458612,0.00713043,-0.00
 912393,0.01026191,-0.00011711,-0.00199955,-0.00061221,-0.00014010,-0.0
 0056255,-0.00044525,0.00008832,0.00007112,0.00020591,0.00002768,0.0000
 0288,0.00009274,0.00067017,-0.00616866,-0.00741129,0.00160310,-0.00024
 499,0.00254920,0.00726208,0.02631583,0.03079204,-0.00939414,-0.0174140
 7,0.00111784,-0.00109606,-0.00007740,-0.00001555,-0.00030908,-0.000391
 45,0.00001721,-0.00001601,0.00001619,0.00014924,0.00011171,0.00019564,
 -0.00428797,-0.00655989,-0.00222456,0.00009836,0.00246339,0.00145700,-
 0.00904792,0.03057708,-0.00360329,0.01196879,-0.02517114,0.00462788,0.
 70314540,-0.05962205,0.39810542,-0.21093772,-0.33585531,0.27282042,-0.
 01645937,0.15194878,-0.00195297,0.01278487,0.15621053,-0.37397668,0.01
 698142,-0.15864682,0.37790428,0.00050710,0.01002289,0.04507157,0.00461
 326,-0.01426345,-0.04682959,-0.00789143,-0.11135760,0.19353468,0.00315
 825,0.00477677,-0.00952687,0.00859638,-0.11350653,-0.09825613,0.287999
 05,-0.00861597,-0.00604079,0.01565518,0.11698693,0.09894230,0.20073929
 ,0.29275565,-0.42112516,-0.00104911,-0.00321888,0.00412689,-0.19794322
 ,-0.29079536,0.42129556,-0.66967743,0.00793533,0.00068049,-0.00075140,
 -0.00239950,0.00094365,-0.00435660,0.00251609,-0.00329181,0.67221336,0
 .00720539,0.06931291,0.00263284,0.02215571,0.00278927,-0.00033228,-0.0
 1370096,0.00088977,-0.00116020,-0.00778190,-0.07222531,-0.00818548,0.0
 0257681,0.07306013,-0.00109006,0.00031463,-0.00079359,0.02320022,-0.00
 172484,0.00299262,0.00094245,-0.00041609,-0.07112158,-0.01399717,0.010
 44002,0.01738899,0.00141883,-0.00092523,0.00326450,0.00285089,0.004913
 94,0.00295157,0.00346477,-0.01022530,-0.01767441,0.00551770,0.00995424
 ,0.00032742,0.02854246,-0.00680663,-0.00083747,-0.01107483,0.00389595,
 0.00635882,0.00118909,-0.00179745,-0.00108279,-0.00248341,-0.00348032,
 -0.00083372,0.01710800,0.02933513,0.02392130,-0.00013115,-0.00147090,-
 0.00197051,-0.00977157,-0.01300670,-0.00908139,-0.00067259,-0.00038700
 ,-0.00225381,-0.00358420,-0.00990757,-0.00509277,0.00336055,0.00129782
 ,0.00183321,0.00022875,0.00079652,0.00075584,-0.00183104,-0.00162812,-
 0.00082917,-0.00032558,0.00096207,0.00111426,-0.00061005,-0.00248197,-
 0.00284287,-0.00026032,-0.00084013,0.00144417,-0.00209508,0.00090033,-
 0.00003566,0.00142223,-0.00095884,-0.00144884,-0.00019822,0.00047785,-
 0.00021342,-0.00006511,0.00043850,-0.00046730,0.00029999,0.00003253,0.
 00041558,0.00059915,0.00139638,0.00448132,0.00081587,0.00125285,0.0021
 0305,-0.00060973,0.00006237,0.00024372,0.00100135,-0.00062805,-0.00249
 716,-0.00115685,-0.00446947,-0.00421595,-0.00070917,0.00018606,-0.0008
 6543,0.00112694,-0.00099232,-0.00057124,-0.00051361,0.00034947,-0.0005
 3083,-0.00040303,-0.00032923,-0.00018264,-0.00050917,0.00103453,0.0013
 4137,0.00085230,0.00125448,0.00022541,-0.00036586,0.00002673,-0.000059
 84,0.00039580,0.00021359,0.00320559,0.00154925,-0.00063033,0.00002173,
 -0.00097921,0.00026095,-0.00041316,0.00148839,0.00109336,0.00037643,0.
 00149436,-0.00114086,-0.00348079,-0.00454080,0.00103524,0.00020114,0.0
 0199143,-0.00193640,-0.00052625,0.00012495,-0.00041999,0.00108742,-0.0
 0109649,0.00062085,-0.00149706,0.00093805,0.00145103,0.00146266,0.0005
 9529,0.00047174,0.00077898,-0.00115735,-0.00062892,-0.00109545,0.00052
 238,0.00034436,0.00073209,-0.00232087,-0.00411992,-0.00503620,0.000392
 52,0.00035001,0.00002455,0.00013368,-0.00016174,-0.00002665,-0.0001234
 2,-0.00033711,-0.00039492,-0.00005794,0.00035045,0.00035164,0.00050273
 ,-0.00053831,-0.00033102,-0.00019645,-0.00007697,0.00011922,-0.0005833
 7,0.00110444,0.00239403,-0.00006774,0.00038495,-0.00016271,0.00024538,
 -0.00030508,0.00017531,-0.00045053,0.00009679,-0.00003198,-0.00006046,
 -0.00004379,0.00015315,0.00030364,-0.00002074,0.00001582,-0.00032213,-
 0.00001411,0.00010432,0.00020844,0.00059274,0.00061530,0.00228085,-0.0
 0069077,-0.00086921,0.00004469,0.00018845,0.00068301,-0.00010934,-0.00
 021652,-0.00021076,0.00017844,0.00035928,0.00008509,-0.00019884,-0.000
 18095,-0.00016559,-0.00003223,-0.00116735,-0.00021143,0.00015551,0.000
 10578,0.00001837,0.00209863,0.00311650,0.00356756,-0.00213685,-0.00220
 517,-0.00376625,0.83865971,-0.14997897,-0.21092486,0.25580800,0.363862
 45,-0.62778007,-0.01672646,-0.00054919,-0.00041828,0.01589024,0.016617
 58,0.00781943,-0.01395512,-0.01346765,-0.01155627,-0.00394536,-0.00468
 991,0.00893985,-0.00129650,0.01123879,-0.00436659,-0.01870068,0.133369
 90,-0.23225102,-0.00249636,-0.00422809,0.00548258,0.01218947,0.1270740
 6,0.11089430,-0.34271705,0.00179560,0.00664615,-0.00982575,-0.12587588
 ,-0.10993303,-0.21997764,-0.34005027,0.50545535,0.00199828,0.00444251,
 -0.00581237,0.21504135,0.33519976,-0.50027512,-0.78632288,0.01390440,-
 0.02730189,0.00302244,-0.00026316,-0.00089924,0.00956273,-0.00165632,0
 .00294801,0.77122508,0.00939198,0.09004363,-0.00690077,0.01540234,-0.0
 0221994,0.00102747,-0.00182602,-0.00242643,0.00402264,-0.01318766,-0.0
 8631878,-0.01399928,-0.00714459,0.09864310,0.00118423,-0.00045300,0.00
 085986,0.00284955,0.00430028,-0.00713627,0.02452164,0.00426387,-0.0868
 9988,-0.01829093,0.00739277,0.00432177,0.00081121,0.00158623,0.0007799
 4,-0.00194054,-0.00415600,-0.00134123,0.00386216,-0.01204004,-0.016128
 20,0.01743524,-0.00052218,0.00471637,-0.00211407,-0.00361788,-0.000819
 86,0.00266824,-0.00226845,-0.00715009,-0.00236357,-0.00029712,0.000276
 84,-0.00182556,0.00630849,0.00227995,-0.01529125,-0.01389393,0.0135740
 3,-0.00129094,-0.00125196,0.00000875,0.00865190,0.01439603,0.00835881,
 -0.00044492,-0.00116054,-0.00340743,0.01076085,0.00371645,-0.01971524,
 -0.00022779,-0.00251998,-0.00032110,0.00004695,-0.00000463,-0.00004729
 ,0.00094505,0.00199054,0.00079487,-0.00077549,0.00035217,0.00042429,-0
 .00133232,0.00145649,-0.00101191,0.00104595,-0.00288447,-0.00188235,0.
 00160368,0.00074383,0.00025552,-0.00046220,0.00112600,0.00134248,0.000
 15714,0.00039198,0.00000124,-0.00061905,0.00077205,0.00095458,-0.00111
 899,-0.00040472,-0.00041694,-0.00298531,0.00043807,0.00211015,0.000512
 35,0.00019401,-0.00030265,0.00049867,0.00063074,0.00080669,0.00064978,
 -0.00162228,-0.00231977,0.00121055,-0.00075224,0.00037812,0.00019344,0
 .00054275,-0.00062930,0.00130926,-0.00120944,0.00024915,-0.00049800,-0
 .00011847,0.00001377,0.00031300,0.00048161,0.00006735,-0.00048974,0.00
 143479,0.00081020,-0.00058583,-0.00055024,-0.00089120,0.00030358,0.000
 18257,-0.00018175,0.00010918,0.00007218,-0.00056566,0.00032735,-0.0001
 3252,-0.00002649,-0.00002168,-0.00032050,0.00051901,-0.00157248,0.0011
 5076,0.00047404,0.00133578,0.00026867,-0.00002596,-0.00060638,-0.00099
 855,-0.00032646,0.00061290,-0.00021283,-0.00016436,0.00016316,0.001082
 09,-0.00074354,-0.00056516,-0.00023519,0.00052463,-0.00023905,-0.00153
 738,-0.00139399,0.00080284,0.00052475,0.00057738,0.00025048,0.00029848
 ,0.00061214,-0.00004144,-0.00006074,0.00002278,-0.00007834,0.00012633,
 0.00005497,0.00029978,-0.00040949,-0.00008663,-0.00005000,-0.00012182,
 -0.00008790,0.00012734,0.00034638,0.00046901,-0.00008430,0.00047244,0.
 00033757,0.00004102,-0.00050912,-0.00048253,-0.00000594,0.00007276,0.0
 0010227,-0.00046145,0.00017278,-0.00029249,0.00013355,0.00022981,-0.00
 010087,-0.00010648,-0.00017454,-0.00009855,0.00006504,0.00002304,0.000
 10762,0.00016426,-0.00004288,0.00016940,0.00014227,-0.00013217,-0.0002
 3183,-0.00008069,0.00012867,0.00007194,-0.00004395,-0.00000799,0.00011
 589,-0.00019834,-0.00002394,-0.00003360,0.00022768,0.00039609,-0.00019
 887,-0.00012399,0.00001995,0.00014852,-0.00003398,-0.00044664,-0.00000
 311,-0.00027621,-0.00015514,-0.00031698,0.00014585,0.00037227,0.000190
 82,0.00000915,-0.00004259,-0.00006601,0.00001082,-0.00020183,0.0003456
 2,0.00004069,0.00005789,-0.00009999,-0.34878307,-0.44665583,0.92645899
 ,0.10534159,0.13529102,-0.32112651,-0.00633555,0.36304699,-0.00507447,
 0.01038432,0.35825833,-0.88389254,0.00250103,-0.35099809,0.86918323,-0
 .00783953,0.01032236,0.11828065,0.00492671,-0.00398653,-0.11098059,0.0
 0605829,0.05898638,-0.09928845,0.00187542,-0.00257658,-0.00207847,-0.0
 0954125,0.07036991,0.02746798,-0.15224994,-0.00827445,0.00382161,0.013
 56468,-0.06088785,-0.02835993,-0.10968620,-0.13712285,0.22347595,0.002
 57399,0.00092500,-0.00467452,0.10662107,0.13572315,-0.21996562,0.34429
 320,0.02127329,0.00007753,-0.00947559,-0.00543836,-0.00042300,0.002249
 90,-0.00033099,0.00240449,-0.33560980,0.00022837,-0.05294077,-0.000930
 10,0.00907495,0.01036178,0.00106906,0.00529789,-0.00120754,0.00067951,
 -0.01623701,0.04396909,0.00489856,-0.00028062,-0.03438799,0.00001356,-
 0.00068525,0.00013627,-0.01152390,-0.00079784,-0.00156086,-0.00074202,
 -0.00018078,0.03381156,0.00779632,0.00772642,-0.00087338,0.00334663,-0
 .00150871,0.00524738,-0.00210071,-0.00168575,-0.00242375,-0.00192403,0
 .00156243,0.00850483,-0.00229479,0.01669751,-0.01858465,0.01015034,-0.
 01257324,0.00005095,-0.02027181,-0.00196305,-0.00197164,0.00061351,0.0
 0157547,0.00040599,0.00234874,-0.00741483,0.01738326,0.00430584,-0.004
 50029,0.01549803,-0.00114079,-0.00220373,-0.00353484,0.00639802,0.0038
 8694,0.00320163,-0.00046900,-0.00049193,0.00064752,-0.00099597,0.00041
 340,-0.00569423,-0.00183133,-0.00233736,-0.00142272,-0.00004798,0.0014
 1880,0.00143233,0.00128336,0.00029766,0.00009935,0.00017092,0.00044668
 ,-0.00033928,-0.00323207,0.00359332,-0.00745799,0.00328766,-0.00136724
 ,0.00259552,0.00029742,0.00149532,-0.00026488,0.00253345,0.00090629,-0
 .00006879,-0.00032242,-0.00030027,-0.00030360,0.00002054,0.00268119,-0
 .00044388,0.00261863,-0.00332657,-0.00140336,-0.00086309,-0.00128699,-
 0.00393823,0.00147666,0.00240874,0.00337849,0.00038040,0.00031908,-0.0
 0002441,-0.00069997,-0.00039514,0.00132266,-0.00798456,0.00410809,-0.0
 0806353,0.00701234,-0.00498323,0.00639319,-0.00066448,-0.00240309,0.00
 098582,-0.00023739,0.00109581,-0.00123420,0.00011702,0.00043010,0.0002
 0478,0.00033843,-0.00020750,-0.00060845,-0.00140749,-0.00000006,-0.000
 56867,0.00035081,-0.00006877,0.00063781,0.00169895,0.00215174,-0.00069
 325,0.00433617,-0.00126046,0.00047878,-0.00230478,0.00028470,0.0002979
 9,-0.00065510,-0.00062411,-0.00027643,-0.00033790,-0.00109234,0.002677
 81,0.00037340,-0.00026992,-0.00009915,-0.00046100,0.00119182,-0.001259
 37,0.00361539,-0.00310207,0.00199507,-0.00259454,0.00154306,-0.0024401
 7,-0.00041473,-0.00027476,-0.00040214,-0.00031338,0.00019952,-0.000049
 01,-0.00119924,0.00215723,-0.00177222,0.00052168,-0.00013258,0.0007113
 9,0.00165087,0.00057901,0.00413976,-0.00053340,0.00036319,0.00025407,0
 .00049014,-0.00025120,-0.00003121,0.00005797,0.00008137,0.00020627,-0.
 00004305,-0.00016580,-0.00020330,-0.00018386,0.00008488,-0.00007143,0.
 00001861,-0.00001994,0.00004040,-0.00019585,-0.00038144,-0.00126605,0.
 00038944,0.00031720,-0.00041127,0.00060407,-0.00051101,0.00026107,-0.0
 0092644,-0.00004779,0.00002033,0.00015920,0.00008198,-0.00000852,-0.00
 008688,-0.00026842,0.00048216,-0.00009642,0.00017740,-0.00001187,0.000
 29046,-0.00003831,-0.00112638,-0.00096940,0.00028894,0.00079449,0.0002
 2744,0.00067944,0.00020302,-0.00018112,-0.00050231,-0.00016530,-0.0000
 9393,-0.00017132,-0.00005004,0.00016535,0.00004987,0.00007984,-0.00027
 532,0.00048051,-0.00028236,0.00015429,-0.00003181,0.00022044,-0.001067
 96,-0.00152979,-0.00218268,0.00107125,0.00102542,0.00217708,-0.0039933
 9,0.00167315,-0.00353407,0.00079539,0.00293734,-0.00089444,0.00050346,
 0.00004764,0.00021794,-0.00020871,0.00034699,0.00029690,0.00051472,-0.
 00006984,-0.00043742,0.00039073,0.00002596,0.00103999,0.00013447,-0.00
 018428,-0.00020252,-0.00057494,0.00040906,-0.00081010,0.00007530,0.000
 01208,-0.00000857,0.00014886,0.00028805,0.00030438,-0.00074133,-0.0000
 3291,-0.00004294,-0.00002568,-0.00043706,0.00015179,-0.00113494,-0.000
 88899,0.00172954,0.00007620,0.00008023,-0.00010172,0.00080442,0.001319
 30,-0.00143212,0.00242330,0.00015885,0.00001453,-0.00011165,0.00002364
 ,0.00003251,0.00006565,-0.00002029,0.00006230,-0.00249543,0.00024627,-
 0.00017369,0.00022496,-0.00001588,-0.00000947,-0.00006207,-0.00000967,
 -0.00002708,-0.00005617,-0.00001839,0.00077840,0.00031997,0.00042765,-
 0.00079064,-0.00010104,-0.00002999,0.00005176,-0.00007240,-0.00009730,
 0.00001089,-0.00003341,0.00019423,0.00058549,0.00340344,-0.00314796,-0
 .00188454,-0.00000949,-0.00052721,-0.00083942,0.00005122,-0.00004927,0
 .00015110,0.00049115,0.00046970,0.00066694,-0.00018359,0.00086452,0.00
 323991,0.00129387,-0.00029881,0.00015348,-0.00058308,0.00006225,-0.000
 22455,-0.00098003,-0.00058719,-0.00032573,-0.00030475,-0.00430254,-0.0
 3409129,0.00043184,-0.00525911,0.00111383,-0.00070758,-0.00095608,-0.0
 0138929,0.00025210,0.00028189,0.00056158,0.00002019,-0.00002272,0.0002
 2270,0.00254302,-0.02482437,-0.01343939,-0.00132100,0.00018314,0.00055
 044,0.00007965,0.00026432,0.00027156,0.00003113,0.00018416,0.00006814,
 -0.00008165,-0.00015017,-0.00029085,0.00328792,-0.00132682,0.00257555,
 -0.00073356,-0.00043152,-0.00128439,-0.00052634,-0.00009429,-0.0001355
 7,-0.00023619,0.00008693,0.00004485,0.00013081,0.00004252,-0.00007494,
 0.00000668,0.00018840,0.00324619,0.00146481,-0.00355762,0.00297495,0.0
 0019563,0.00047745,-0.00099826,0.00006452,0.00034946,0.00031392,-0.000
 10793,-0.00010787,-0.00020951,-0.00005968,0.00008951,0.00002310,0.0034
 5031,-0.00100980,0.00629364,-0.00073584,-0.00320329,-0.00459149,-0.001
 02758,0.00208766,0.00027168,0.00001237,0.00005542,0.00037263,0.0001338
 3,0.00015033,0.00014940,0.00004629,-0.00057210,-0.00061442,-0.00005103
 ,0.02848751,0.00584364,-0.00180793,0.00139346,-0.00156098,-0.03626806,
 -0.00340793,-0.00063214,-0.00566710,0.00062430,-0.00017210,0.00103332,
 -0.00017466,-0.00021363,0.00065824,0.00071045,-0.00014510,-0.00017265,
 0.00547562,-0.00509669,0.00228187,0.00079049,0.00189165,0.00259062,-0.
 33104664,-0.10272517,-0.00290096,0.00330774,-0.00328377,0.00070108,0.0
 0010447,0.00100885,-0.00034923,-0.00088980,-0.00009127,0.00043701,-0.0
 0018836,-0.00007209,-0.00744098,0.03986328,0.01730150,-0.00190905,0.00
 357525,-0.00141325,-0.67417233,-0.74976459,-1.27432551,0.00058671,-0.0
 0141155,0.00084465,-0.00034093,-0.00010540,-0.00035390,0.00006896,-0.0
 0008302,-0.00017662,-0.00033766,0.00005025,0.00012521,-0.00698962,-0.0
 2289890,-0.01095876,0.00054542,0.00237212,-0.00124602,0.03896210,0.327
 02837,0.68563446,-0.03249498,0.00042048,0.00178311,0.00196389,-0.00016
 021,0.00034712,0.00003203,0.00005107,0.00000718,-0.00026338,-0.0003095
 7,-0.00002239,-0.00002388,0.00189326,0.03309868,0.02703370,0.00361250,
 -0.00666274,0.00081393,0.29944436,0.10709318,0.70399199,-0.30495189,-0
 .13564412,0.00190234,-0.00102803,0.00208376,-0.00038560,0.00012148,-0.
 00072098,0.00029171,0.00026080,-0.00046738,-0.00047345,-0.00017939,-0.
 00003121,0.00335357,-0.01345513,-0.01066457,-0.00052996,-0.00121173,0.
 00058186,0.66971039,0.74904028,1.26087557,-0.67386901,-0.73354827,-1.2
 5165704,-0.16752022,0.01220306,-0.11922135,0.05025819,0.06308718,-0.07
 548416,-0.01450074,-0.06303514,0.01419000,0.01625688,-0.06326135,0.137
 00945,0.00204799,0.06716376,-0.13967543,0.01405954,0.00241750,-0.02111
 956,-0.01727905,-0.00016316,0.02227105,-0.02830430,0.05364437,-0.06151
 339,-0.00417619,-0.00091130,0.00398761,0.02831126,0.05515036,0.0234873
 5,-0.08488253,0.00227435,0.00513612,-0.00772695,-0.05775770,-0.0235943
 4,-0.06276295,-0.08824161,0.13288285,0.00167880,-0.00106008,-0.0000828
 3,0.06335160,0.08977558,-0.13442754,0.20822198,-0.00341662,-0.00001128
 ,0.00267596,-0.00263465,0.00164228,0.00379825,0.00268098,-0.00205476,-
 0.21346513,-0.00178741,-0.04638090,0.02293412,-0.01033755,-0.00078829,
 0.00065024,0.00649569,-0.00228464,0.00114981,0.00363320,0.05003515,0.0
 0304862,0.02117390,-0.03377286,0.00134318,0.00135997,-0.00101051,-0.01
 007566,0.00065006,-0.00025042,0.00008662,-0.02252774,0.03371691,0.0046
 5070,0.00103384,-0.00347152,0.00020491,-0.00021380,-0.00259131,-0.0014
 9057,-0.00323765,-0.00050650,-0.00167215,0.00300231,0.00688508,-0.0029
 2535,-0.00147254,0.00477178,-0.00377288,0.00361978,-0.00090800,0.00439
 610,-0.00159349,-0.00297691,-0.00162123,-0.00054931,-0.00037910,0.0003
 1334,0.00110053,-0.00248121,-0.00491867,0.00031961,-0.00070495,-0.0003
 7783,-0.00186419,0.00002241,0.00430580,0.00342322,0.00246252,0.0009714
 5,-0.00161588,0.00004629,-0.00370886,0.00051805,-0.00602317,-0.0028284
 4,-0.00158709,0.00153392,-0.00000592,0.00024785,-0.00053361,0.00162030
 ,0.00099459,-0.00007321,0.00060895,-0.00015427,-0.00090310,0.00107836,
 -0.00073075,0.00392022,-0.00061334,-0.00098137,0.00025861,0.00104603,-
 0.00011571,-0.00030737,-0.00060227,0.00067193,0.00023627,0.00043310,0.
 00061138,-0.00006482,-0.00004219,-0.00157540,0.00056031,-0.00133693,0.
 00161460,-0.00071296,0.00188329,0.00005702,-0.00122003,-0.00074359,-0.
 00000859,-0.00081068,-0.00001289,-0.00028581,0.00022168,-0.00070727,-0
 .00004683,0.00153409,0.00343261,0.00004244,0.00405016,-0.00402188,0.00
 082804,-0.00367040,-0.00048549,0.00106309,-0.00041570,-0.00007584,-0.0
 0025744,0.00057674,0.00019005,-0.00006566,0.00012673,-0.00006140,-0.00
 078537,-0.00036996,0.00029125,-0.00040838,-0.00017966,0.00007231,-0.00
 027271,0.00023028,0.00094960,0.00020732,-0.00056051,-0.00006878,0.0003
 4045,-0.00026670,0.00070216,-0.00049253,0.00013333,-0.00045200,-0.0003
 1459,-0.00002672,-0.00079096,-0.00013618,0.00143519,0.00045803,-0.0004
 6187,0.00007633,-0.00061498,0.00039526,-0.00077986,-0.00090990,0.00132
 868,-0.00057355,0.00092192,-0.00027408,0.00082717,-0.00009819,-0.00084
 669,-0.00077485,-0.00011961,-0.00046805,-0.00036324,-0.00002251,0.0000
 1340,0.00022793,0.00012108,-0.00030602,-0.00014408,-0.00199430,-0.0011
 3863,-0.00160387,0.00076652,0.00009449,-0.00057023,-0.00037906,-0.0001
 3306,0.00013780,0.00005121,-0.00003926,0.00024029,-0.00010645,-0.00006
 660,-0.00001477,-0.00013714,0.00003415,-0.00001245,0.00006779,0.000047
 27,-0.00006055,-0.00088047,0.00046214,0.00210151,0.00061760,-0.0000580
 8,0.00063557,-0.00039115,0.00009007,-0.00019977,0.00032639,-0.00005698
 ,-0.00013718,0.00001644,-0.00001040,-0.00011066,-0.00013637,0.00002635
 ,-0.00002205,0.00009809,0.00007694,-0.00004637,0.00002871,0.00033122,-
 0.00001106,0.00169138,-0.00039912,-0.00010848,-0.00065813,-0.00014227,
 -0.00000775,0.00026656,-0.00003786,-0.00009705,0.00005513,-0.00010688,
 -0.00003142,0.00019258,-0.00007569,0.00009973,-0.00001699,0.00011079,-
 0.00008119,-0.00004342,-0.00001975,0.00003925,0.00202588,0.00190516,0.
 00240449,-0.00182161,-0.00163349,-0.00232606,-0.02344625,0.01773578,-0
 .04743073,0.00713991,0.01402332,-0.00179684,-0.00083624,-0.02043991,-0
 .00415602,0.00050838,-0.02030663,0.04827619,-0.00210425,0.02096970,-0.
 04810417,-0.00407912,-0.00232182,-0.01352003,0.00481795,0.00360159,0.0
 1491964,0.00075158,0.00336780,-0.00537233,-0.00004064,-0.00038025,0.00
 067176,0.00024279,0.00280417,0.00029182,-0.01014505,0.00062876,0.00051
 300,-0.00213450,-0.00320573,0.00032738,-0.00563516,-0.01127269,0.01315
 999,0.00019059,-0.00045368,-0.00022120,0.00545476,0.01195238,-0.013262
 50,0.02112653,-0.00081095,0.00059780,0.00076246,-0.00017084,0.00005682
 ,-0.00082676,-0.00016668,0.00040620,-0.02191497,0.00031570,-0.00461157
 ,-0.00209804,-0.00218656,-0.00050879,-0.00045391,0.00046210,0.00030321
 ,0.00081456,0.00084351,0.00595952,0.00118576,-0.00188984,-0.00231437,-
 0.00004326,-0.00049063,-0.00000255,-0.00077937,0.00078045,-0.00050460,
 -0.00125545,0.00230178,0.00326569,0.00268146,0.00040218,0.00221356,-0.
 00032048,-0.00003204,-0.00079848,-0.00028218,-0.00030799,-0.00061549,0
 .00068578,0.00144046,0.00151754,-0.00793610,0.00078390,0.00595328,0.00
 386954,0.00148185,-0.00003666,0.00230811,-0.00018124,-0.00095297,-0.00
 085878,0.00014398,-0.00034079,-0.00009426,0.00444525,-0.01808084,0.002
 43382,0.00324597,0.00731695,0.00007558,-0.00016410,0.00018582,0.000186
 10,0.00093501,0.00137737,0.00004068,0.00002237,-0.00020277,-0.00817043
 ,-0.00239199,-0.01608616,-0.00008825,-0.00091023,-0.00049372,-0.000345
 19,-0.00001680,-0.00080605,0.00009884,0.00012657,0.00015902,0.00001619
 ,-0.00009917,-0.00007570,0.00432062,-0.00262444,0.00619943,-0.00426634
 ,0.00025547,-0.00158925,-0.00043809,-0.00060162,-0.00026566,-0.0012181
 1,-0.00003957,0.00019948,0.00011154,0.00000281,0.00014497,-0.00001527,
 -0.00309842,0.00083346,-0.00434633,0.00452051,0.00042395,0.00017926,-0
 .00234176,-0.00116692,-0.00114370,-0.00026307,-0.00187722,-0.00000753,
 0.00002950,0.00006413,0.00005382,0.00017151,0.00020122,0.00592579,-0.0
 0357222,0.00721218,-0.00555599,0.00720386,-0.00418113,0.00003969,0.000
 79755,0.00007385,0.00021420,-0.00006039,0.00012789,0.00006299,0.000024
 50,-0.00009273,0.00011864,-0.00060576,-0.00042423,0.00102454,-0.003455
 95,-0.00024617,0.00022494,-0.00112519,0.00052579,-0.00224114,-0.001476
 35,-0.00071618,-0.00298411,0.00012179,0.00007477,0.00017596,-0.0000372
 9,-0.00074446,-0.00038011,0.00013322,-0.00091378,-0.00058955,-0.002811
 67,0.01131725,0.00196820,-0.00116767,0.00055576,-0.00130051,-0.0038533
 1,-0.00649472,-0.00123886,0.00072943,-0.00132564,0.00023306,-0.0001216
 1,0.00042495,-0.00011877,-0.00125657,-0.00061272,-0.00000724,-0.000818
 97,-0.00049871,0.00012580,0.00091604,0.00068783,0.00050126,-0.00123110
 ,-0.00038684,-0.01151283,-0.01203086,-0.02230124,-0.00022852,-0.000142
 22,-0.00000306,0.00005750,-0.00000275,0.00000923,-0.00000661,0.0000963
 9,0.00013281,0.00003214,-0.00017028,-0.00012529,-0.00017364,-0.0005933
 5,-0.00051900,0.00003920,0.00008602,0.00002255,0.00055614,0.00909128,0
 .01201758,-0.00027620,-0.00011204,-0.00017356,-0.00012331,0.00002599,0
 .00005130,0.00004269,0.00001417,0.00006254,0.00008677,0.00002495,-0.00
 003277,-0.00000269,-0.00003777,0.00130726,0.00073086,0.00017124,-0.000
 30270,0.00007269,0.00827855,-0.00307864,0.01381364,-0.00836509,0.00216
 657,0.00001440,-0.00017262,-0.00035314,0.00002580,-0.00000425,0.000090
 58,-0.00003462,-0.00016121,-0.00000047,0.00010737,0.00006070,0.0000560
 8,-0.00019830,-0.00017645,-0.00049122,0.00007175,-0.00006650,0.0001345
 8,0.01154842,0.01514098,0.02401236,-0.01153482,-0.01462066,-0.02344878
 ,-0.05617630,0.00428210,-0.02608708,0.01770378,0.02974563,-0.01941561,
 -0.00180207,-0.00903692,0.00168372,0.00264467,-0.00887151,0.02098689,0
 .00110965,0.00909089,-0.02142941,0.00177928,0.00083941,-0.00263709,-0.
 00166818,-0.00149889,0.00329011,-0.00208227,0.00577265,-0.02042045,0.0
 0021582,0.00053953,0.00122068,0.00000336,0.00549699,0.00527680,-0.0277
 5587,0.00138635,0.00028585,-0.00110515,-0.00645254,-0.00330230,-0.0210
 8592,-0.02756290,0.03240733,0.00053785,0.00046358,-0.00125772,0.021250
 06,0.02929880,-0.03159747,0.05691103,-0.00004102,-0.00019998,-0.000679
 92,-0.00007538,-0.00067183,0.00184648,-0.00007982,-0.00059275,-0.05795
 281,-0.00025272,-0.00618530,-0.00431624,-0.00197688,-0.00100840,0.0000
 9121,0.00132289,-0.00020549,-0.00093562,-0.00006572,0.00845795,0.00018
 403,-0.00371315,-0.01512057,-0.00059780,0.00024460,0.00093237,-0.00303
 383,-0.00093970,-0.00032581,0.00127761,0.00578133,0.01459518,0.0078668
 9,0.00032886,-0.00186626,-0.00083021,-0.00090004,-0.00063513,-0.001128
 39,-0.00166522,-0.00101777,-0.00071489,0.00193892,0.00410237,-0.012450
 88,0.00267715,0.00785326,0.00363766,0.00033697,0.00124628,0.00170812,-
 0.00127631,-0.00172444,-0.00147646,-0.00033653,-0.00016978,-0.00015233
 ,0.01881550,-0.03834781,-0.00051050,-0.00019715,0.00817884,0.00007903,
 -0.00031192,-0.00081052,0.00207704,0.00216606,0.00121476,-0.00008178,-
 0.00071451,-0.00075355,-0.04098501,-0.00255047,-0.04910987,-0.00245654
 ,-0.00154295,0.00123152,0.00011522,0.00009938,-0.00006247,0.00062646,0
 .00077100,0.00059204,0.00052894,-0.00012734,-0.00072136,0.01268411,-0.
 01600195,0.03414285,-0.01243565,-0.00065321,-0.00165989,0.00014341,-0.
 00015325,-0.00017892,-0.00046245,0.00044277,0.00039944,0.00028232,0.00
 011303,-0.00002252,-0.00000117,-0.01735579,0.00686950,-0.01636553,0.01
 664977,-0.00220383,0.00174510,-0.00130962,-0.00166214,-0.00020835,-0.0
 0004991,-0.00018041,-0.00035227,-0.00014482,0.00044697,0.00017239,0.00
 056961,0.00096643,0.03336130,-0.01415469,0.03243269,-0.03433786,0.0175
 6151,-0.03146402,-0.00148957,0.00163801,0.00134071,0.00068705,0.000379
 62,0.00013156,0.00053484,0.00049268,-0.00005021,0.00033611,-0.00064312
 ,-0.00096189,-0.00031807,0.00230095,0.00698143,-0.00095730,-0.00066992
 ,0.00111722,0.04993424,-0.00221482,-0.00055929,-0.00294002,0.00036381,
 0.00004843,0.00019446,-0.00019505,-0.00069015,-0.00005277,0.00062577,-
 0.00077673,-0.00092065,-0.00453609,0.01554348,0.00374716,-0.00078055,-
 0.00070822,-0.00059932,-0.05829999,-0.05148536,-0.00088366,0.00335190,
 -0.00123938,0.00012247,0.00022038,0.00106782,-0.00062198,-0.00138767,-
 0.00053125,-0.00005453,-0.00053465,-0.00024588,0.00303433,0.01491303,0
 .00978497,0.00105341,-0.00041861,-0.00039941,-0.23583059,-0.22522556,-
 0.34143389,-0.00077118,-0.00140074,0.00052696,-0.00035056,-0.00026250,
 -0.00009390,-0.00001631,0.00005056,0.00036670,-0.00027492,-0.00019603,
 -0.00024912,-0.00510857,-0.00651578,-0.00170306,0.00189475,0.00162661,
 -0.00149752,-0.04872730,0.06503692,0.23318054,0.05335409,-0.00046398,0
 .00037461,0.00037579,-0.00001097,0.00004928,0.00023330,-0.00015393,-0.
 00003971,-0.00001694,-0.00014033,-0.00008974,-0.00029894,0.00337385,0.
 00872951,0.01422636,0.00093263,-0.00249556,-0.00187274,0.05480177,0.03
 862784,0.20908120,-0.05833905,-0.04515623,0.00106789,-0.00115412,-0.00
 051138,0.00005127,-0.00017748,-0.00040456,-0.00011925,-0.00013164,-0.0
 0035681,0.00015087,0.00005887,-0.00004817,0.00400618,-0.00192485,-0.00
 093732,-0.00189813,-0.00073947,-0.00014011,0.22727178,0.22579671,0.332
 99701,-0.23053059,-0.22172802,-0.33059867,-0.00072928,0.00183623,-0.00
 087637,0.00311455,0.00363998,0.00520122,-0.00020023,-0.00090406,0.0001
 4358,0.00038751,-0.00118687,0.00268185,-0.00003900,0.00114377,-0.00257
 175,-0.00001973,0.00042285,-0.00039574,0.00060071,0.00013822,0.0014848
 0,0.00006257,0.00008844,-0.00005504,0.00006639,-0.00000382,0.00007518,
 -0.00002732,-0.00006800,-0.00025078,-0.00024830,-0.00002308,0.00001877
 ,-0.00015916,-0.00001440,0.00021322,-0.00004872,-0.00037559,0.00049565
 ,0.00007832,0.00000349,-0.00004067,0.00012377,0.00035997,-0.00029261,0
 .00055351,-0.00001221,0.00018379,-0.00000165,-0.00002395,0.00005004,0.
 00000361,0.00001771,0.00002099,-0.00050002,0.00017172,-0.00026300,-0.0
 0020449,-0.00014621,-0.00002335,-0.00010738,0.00000444,0.00002898,0.00
 004195,-0.00001980,0.00026845,0.00019337,-0.00012218,0.00001708,-0.000
 03481,-0.00003891,0.00006950,-0.00000049,0.00002623,0.00003768,-0.0000
 7222,0.00019174,0.00012464,0.00107366,-0.00213504,-0.00179526,-0.00004
 196,-0.00018219,-0.00036670,-0.00009728,-0.00005739,-0.00007258,-0.000
 06613,0.00012303,-0.00002154,-0.02243367,-0.00198130,-0.00041730,-0.00
 429542,0.00008566,0.00008989,0.00012356,-0.00009619,-0.00014671,-0.000
 17563,-0.00006564,-0.00007601,-0.00016954,0.02152282,-0.01000974,-0.00
 170641,-0.00454640,-0.00399375,-0.00021204,-0.00031390,-0.00040928,-0.
 00016083,0.00004802,-0.00016685,-0.00006465,-0.00002171,-0.00026867,-0
 .02876477,0.02776252,-0.02816115,-0.00062346,0.00032461,-0.00179535,-0
 .00022403,0.00014425,-0.00041002,-0.00000649,0.00012344,-0.00008645,-0
 .00001073,-0.00002560,0.00000763,0.01955422,-0.01507178,0.03038470,-0.
 01590092,0.00100094,-0.00060839,0.00094239,-0.00037941,-0.00010805,-0.
 00072704,0.00000460,0.00015515,0.00007730,0.00002939,0.00011175,0.0000
 9444,-0.01392372,-0.00024085,-0.02035097,0.00687739,0.00879622,-0.0014
 0497,-0.00016218,-0.00179737,-0.00071236,0.00012815,-0.00101135,0.0000
 2681,0.00012276,-0.00000580,-0.00014246,0.00015324,0.00004184,0.031047
 51,-0.02222586,0.03349494,-0.02441856,0.01545441,-0.02947463,-0.000276
 03,0.00075137,0.00038739,0.00002337,0.00010085,0.00008963,0.00001292,0
 .00005362,0.00002328,0.00002765,-0.00009989,-0.00010149,0.00143756,-0.
 00117050,0.00099628,-0.00124821,0.00517046,-0.00299117,-0.00198200,0.0
 0013466,-0.00043985,0.00010898,0.00019780,-0.00008782,0.00026992,0.000
 04432,-0.00004342,0.00007655,0.00008171,-0.00008629,0.00001276,-0.0044
 0051,0.00738322,-0.00316325,0.00654295,-0.00678658,0.00537583,-0.02257
 881,0.00778534,0.00003140,0.00111618,0.00044786,0.00014558,0.00011164,
 0.00030633,-0.00002425,-0.00015702,-0.00001612,0.00004552,-0.00003510,
 0.00001206,-0.00086836,0.00211164,0.00021491,-0.00219883,0.00313417,0.
 00062935,-0.02752999,-0.03636299,-0.05905754,0.00013925,0.00005066,-0.
 00018367,-0.00000940,0.00000796,-0.00001913,-0.00001441,-0.00003191,-0
 .00003860,-0.00000624,-0.00000768,0.00002954,0.00057361,-0.00322309,-0
 .00047229,-0.00154038,0.00122035,-0.00140479,0.00200473,0.01997788,0.0
 3039893,-0.00114717,0.00009260,0.00017382,0.00009586,0.00002553,0.0000
 0048,0.00003903,-0.00002739,0.00002479,-0.00000805,-0.00000722,0.00003
 947,0.00000545,-0.00094701,0.00341750,0.00058569,0.00108474,-0.0013192
 6,0.00115365,0.01777289,-0.00772460,0.03008148,-0.01799416,0.00538781,
 -0.00015949,0.00002735,0.00002504,-0.00000899,0.00001031,-0.00000360,0
 .00001484,0.00000748,-0.00001128,-0.00002101,-0.00001826,-0.00003413,0
 .00084170,-0.00313127,-0.00071015,-0.00148312,0.00137529,-0.00187698,0
 .02912607,0.03368219,0.05746314,-0.02831000,-0.03195310,-0.05485205,-0
 .04078360,0.00055347,-0.01562352,0.01549658,0.02079300,-0.01276333,-0.
 00067233,-0.00499515,0.00058305,0.00107376,-0.00495027,0.01158578,0.00
 021915,0.00505282,-0.01114970,0.00060902,0.00014570,-0.00171630,-0.000
 91923,-0.00016234,0.00182783,-0.00062614,0.00424702,-0.01482674,-0.000
 10314,0.00011887,0.00094422,0.00029348,0.00435342,0.00505722,-0.018950
 21,0.00077031,0.00003601,-0.00064196,-0.00463884,-0.00436449,-0.014324
 11,-0.01785633,0.02137410,0.00026542,0.00021143,-0.00061663,0.01475402
 ,0.01854397,-0.02130851,0.03875929,0.00010892,-0.00069614,-0.00043824,
 0.00000060,-0.00031583,0.00097093,0.00000464,-0.00052853,-0.03891052,-
 0.00069238,-0.00311260,-0.00233913,-0.00121791,-0.00066667,0.00005744,
 0.00101436,-0.00013150,-0.00040443,-0.00000772,0.00381013,-0.00159998,
 -0.00229829,-0.00983928,0.00003566,0.00013001,0.00042126,-0.00208342,-
 0.00033581,-0.00039550,0.00142332,0.00250882,0.00971852,0.00384349,-0.
 00084490,0.00067253,-0.00043380,-0.00034941,-0.00048671,-0.00079931,-0
 .00050378,-0.00033860,-0.00119973,0.00076041,0.00240530,-0.01361496,0.
 00070994,0.00350373,0.00137322,0.00035156,0.00028055,0.00088575,-0.000
 76295,-0.00064558,-0.00029966,-0.00019041,0.00005390,0.00023329,0.0148
 5587,-0.02539812,0.00157036,-0.00116567,0.00502427,-0.00008207,-0.0002
 5898,-0.00054275,0.00168916,0.00174047,0.00023086,-0.00032125,0.000169
 03,-0.00006818,-0.03819733,0.00092575,-0.04682135,-0.00120761,-0.00054
 722,-0.00026823,0.00003427,-0.00001267,0.00007825,0.00035866,0.0001588
 4,0.00027693,0.00056422,0.00007267,-0.00035241,0.01273660,-0.01454247,
 0.02604399,-0.01181404,-0.00006964,-0.00118654,-0.00008477,-0.00011847
 ,-0.00007899,-0.00022860,0.00033443,0.00020705,0.00006181,0.00002961,0
 .00004314,0.00007047,-0.01432580,0.00969089,-0.01298044,0.01403858,-0.
 00220134,0.00000730,-0.00086474,-0.00172373,0.00001716,-0.00005585,-0.
 00002230,-0.00028510,-0.00019168,0.00052292,0.00028634,0.00010757,0.00
 048121,0.02616895,-0.01333412,0.02668839,-0.02767151,0.01583002,-0.025
 96042,0.00193416,0.00462765,-0.00317655,0.00128628,0.00060760,0.000368
 16,-0.00038692,-0.00052668,-0.00076237,0.00077864,0.00019015,0.0006806
 7,0.00213311,0.00978948,0.01802743,-0.00393790,-0.00399192,0.00458791,
 0.06878782,0.00154406,-0.00041505,-0.00090175,0.00023259,-0.00000872,-
 0.00036157,-0.00030394,-0.00028795,-0.00066933,0.00005245,-0.00005426,
 -0.00012523,-0.00686114,0.01076690,-0.00184638,-0.00208069,-0.00185103
 ,0.00024292,-0.08894705,-0.06238547,-0.00495710,0.00413429,-0.00019356
 ,0.00015187,0.00025083,0.00166834,-0.00008051,-0.00039640,0.00056477,0
 .00004802,-0.00053756,-0.00083443,0.00841516,0.02534667,0.02293039,0.0
 0569115,-0.00287822,-0.00052538,-0.37064396,-0.33385354,-0.53374241,-0
 .00124726,-0.00314979,0.00221550,-0.00074680,-0.00046754,-0.00027789,0
 .00029245,0.00038208,0.00065724,-0.00052459,-0.00011958,-0.00050914,-0
 .00266540,-0.01021104,-0.00873029,0.00326579,0.00410322,-0.00311105,-0
 .07059518,0.09636371,0.36137537,0.07222099,-0.00144860,0.00019098,-0.0
 0010952,-0.00007576,0.00000174,0.00030557,-0.00000895,0.00012924,0.000
 41255,0.00000191,0.00005785,-0.00018325,0.00726875,0.00174773,0.013416
 22,0.00291295,-0.00462319,-0.00173411,0.07825077,0.05423557,0.30793392
 ,-0.08690107,-0.05173993,0.00319792,-0.00288796,-0.00016217,-0.0000518
 6,-0.00033425,-0.00101944,-0.00011163,0.00023163,-0.00037201,0.0001040
 8,0.00043824,0.00051641,0.00136069,-0.01513090,-0.00744164,-0.00379817
 ,0.00020973,0.00053932,0.35091871,0.33751489,0.51013228,-0.35161974,-0
 .32004138,-0.50219274,-0.00297899,0.01944127,0.01798382,0.02990475,0.0
 5045532,0.06354798,-0.00064598,-0.00062418,0.00044329,0.00035620,-0.00
 113002,0.00165096,-0.00023517,0.00048266,-0.00088150,0.00015122,0.0005
 9092,-0.00055000,0.00005646,-0.00000496,0.00058167,-0.00022617,0.00025
 659,0.00037997,0.00019423,0.00003665,0.00007636,-0.00008626,0.00006368
 ,-0.00040635,0.00046029,0.00002476,0.00007007,-0.00005627,-0.00002101,
 0.00041262,0.00015414,-0.00044835,-0.00067092,0.00007492,-0.00007777,0
 .00000366,-0.00040957,-0.00024737,0.00159402,-0.00066237,-0.00055476,-
 0.00038100,0.00005968,-0.00008227,-0.00004182,0.00015616,0.00003285,-0
 .00012569,0.00155157,0.00021836,-0.00058390,0.00000203,-0.00005917,0.0
 0001519,-0.00007576,0.00002265,0.00014172,-0.00000999,0.00026365,0.000
 40908,0.00017977,-0.00003690,-0.00005711,-0.00003390,-0.00007255,0.000
 19311,0.00010610,0.00006571,0.00017206,0.00042344,0.00022739,-0.000040
 40,0.00394454,-0.01772856,-0.02790386,0.00007497,0.00058040,0.00005091
 ,-0.00022367,-0.00047972,0.00040268,-0.00155942,-0.00006623,-0.0002886
 7,-0.00377790,-0.01911947,-0.01884942,-0.05062934,0.00057403,-0.000765
 95,0.00035150,-0.00029197,0.00014070,0.00082288,-0.00007099,0.00053197
 ,0.00015393,0.00344561,0.07487829,-0.02870666,-0.04835769,-0.06003488,
 0.00004722,0.00036184,0.00053511,0.00012625,0.00061599,-0.00112009,0.0
 0009334,0.00006198,-0.00017562,0.02982419,0.06087341,0.06302627,-0.000
 22673,0.00008816,-0.00171032,-0.00027367,0.00006636,-0.00029455,-0.000
 01680,0.00014094,-0.00011250,0.00019027,-0.00009662,-0.00015802,-0.002
 34330,0.00007974,-0.00322647,0.00433670,-0.00045386,0.00026827,-0.0010
 7809,-0.00035994,0.00008516,-0.00049832,0.00003203,0.00017176,-0.00008
 614,-0.00004073,0.00003616,-0.00001283,-0.00015303,-0.00069251,-0.0004
 5389,-0.00515121,0.00597509,-0.00202326,-0.00019292,-0.00256373,-0.000
 54068,0.00019786,-0.00083862,-0.00016826,-0.00010759,-0.00003635,-0.00
 013285,0.00009523,-0.00010783,-0.00336072,-0.00007386,-0.00587024,0.00
 877220,-0.00331442,0.00955657,0.00061035,-0.00093311,-0.00047959,0.000
 15814,-0.00002318,-0.00009556,0.00020417,0.00014145,0.00001120,0.00024
 054,-0.00029486,-0.00029237,0.00277441,0.01953597,0.00323479,-0.000429
 23,0.00538641,-0.00179625,-0.00584069,0.00063747,-0.00031038,0.0005305
 9,-0.00000553,-0.00020246,-0.00024628,-0.00001709,-0.00048126,0.000035
 14,0.00039070,-0.00049589,-0.00031398,0.01588727,-0.05686027,-0.011323
 06,0.00446687,-0.00519331,0.00281065,-0.03280408,0.06833514,0.00042707
 ,-0.00203443,0.00009716,-0.00008538,-0.00027508,-0.00008978,-0.0001468
 4,-0.00076330,-0.00001792,0.00016992,-0.00037622,-0.00003960,0.0011283
 5,-0.00536409,0.00644548,-0.00232701,0.00431224,0.00126380,-0.01823825
 ,-0.01050602,-0.04211941,0.00018536,0.00005459,-0.00025325,0.00007643,
 0.00006940,0.00009698,-0.00000165,0.00009705,0.00000484,0.00002357,0.0
 0001222,0.00006365,0.00111037,-0.00415292,-0.00139266,-0.00123724,0.00
 074032,-0.00075019,0.00228231,0.01144439,0.01907214,-0.00243914,0.0003
 4257,0.00024700,0.00049436,-0.00003264,0.00002853,-0.00006083,-0.00001
 786,-0.00004927,0.00001161,0.00006157,-0.00005433,-0.00001077,-0.00148
 575,0.00161719,-0.00177859,0.00040576,-0.00065062,0.00058505,0.0089914
 0,-0.00479158,0.01500689,-0.00826504,0.00365307,-0.00008703,0.00002405
 ,0.00023151,0.00003807,0.00010581,0.00016484,0.00003599,0.00003254,0.0
 0007554,-0.00000535,0.00007534,0.00005538,0.00014712,-0.00613442,-0.00
 280603,-0.00094334,0.00113145,-0.00140360,0.01765604,0.01901295,0.0344
 6026,-0.01684151,-0.01424772,-0.03077791,-0.14648749,0.07309043,-0.168
 61239,0.04019501,0.10588934,-0.01850104,0.00846665,-0.08039817,-0.0113
 5664,-0.00754469,-0.07583332,0.17471806,-0.01546094,0.07837550,-0.1681
 9913,-0.00872128,-0.02291550,-0.04047660,0.01079816,0.02305931,0.04450
 016,0.00526248,0.02157977,-0.02874099,-0.00099524,-0.00059944,0.002219
 14,-0.00175537,0.02323701,0.01337780,-0.06608012,0.00213733,0.00218262
 ,-0.00596762,-0.02395158,-0.01322560,-0.02899352,-0.06416242,0.0703504
 2,0.00082512,-0.00111248,-0.00212318,0.02858752,0.06307913,-0.06571901
 ,0.12333002,-0.00941782,0.00036168,0.00109679,-0.00134849,-0.00033329,
 -0.00256371,-0.00148035,0.00071185,-0.11858039,-0.01188478,-0.02475559
 ,-0.00871725,-0.00708328,-0.00160400,-0.00077015,0.00342557,-0.0000679
 9,0.00158028,0.01134269,0.02633267,0.00014735,-0.00931208,-0.00959273,
 -0.00067013,-0.00072924,-0.00042881,-0.00216366,0.00356792,-0.00147468
 ,0.00126333,0.00650841,0.01155595,0.01081888,-0.00405905,0.00283809,-0
 .00050785,-0.00063944,-0.00344987,0.00006085,-0.00020310,-0.00091808,-
 0.00386887,0.00529986,0.00227366,-0.00829120,-0.00593638,0.00746718,-0
 .00979828,0.00642216,-0.00644694,0.00597003,-0.00041778,-0.00219371,0.
 00129489,0.00110100,0.00078016,0.00064261,-0.02756909,0.05724838,0.001
 75346,-0.00673313,0.00662442,0.00062713,-0.00556210,-0.00080839,0.0005
 7761,0.00709854,-0.00023080,-0.00176958,0.00204749,0.00072604,-0.00372
 207,-0.00287751,-0.02349706,-0.00098811,-0.00089374,-0.00267621,-0.000
 78463,0.00040487,-0.00094036,0.00003835,0.00006652,-0.00070048,0.00051
 187,-0.00043765,-0.00014228,0.00063061,-0.00037680,0.00315645,0.000260
 11,0.00049080,-0.00113067,-0.00004435,-0.00096337,-0.00008806,-0.00158
 616,-0.00006460,0.00081871,-0.00025179,-0.00017117,0.00054355,0.000113
 29,-0.00196984,0.00111165,-0.00174670,0.00269184,-0.00188092,-0.001876
 78,-0.00230557,-0.00406138,-0.00173033,0.00064824,-0.00251726,-0.00012
 033,-0.00029266,-0.00016124,-0.00064423,-0.00006681,-0.00035984,0.0022
 3672,0.00085491,0.00271116,0.00258106,0.00352324,0.00588017,-0.0012465
 6,0.00065448,-0.00110550,0.00048178,-0.00011420,0.00068377,-0.00009723
 ,0.00006068,0.00029733,0.00032939,-0.00074102,-0.00061512,0.00122159,0
 .02805093,0.00113324,0.00046594,-0.00056496,-0.00026109,-0.00181273,-0
 .00260561,-0.00179077,-0.00509354,0.00116667,-0.00042932,0.00164420,0.
 00011412,-0.00047113,-0.00059289,-0.00027080,-0.00094393,-0.00058732,0
 .02860847,-0.05906926,0.00659161,-0.00156237,0.00120465,-0.00210197,-0
 .04500699,0.06660001,-0.00298750,0.00023041,-0.00508428,0.00142316,-0.
 00044741,0.00208856,-0.00029563,-0.00141143,-0.00053025,0.00028017,-0.
 00062426,-0.00048394,0.00145507,0.00568144,0.01609952,-0.00083687,-0.0
 0047319,-0.00121374,-0.02645155,-0.03417335,-0.06445229,0.00084412,-0.
 00055590,0.00048456,-0.00021281,-0.00024548,-0.00025626,0.00004988,0.0
 0013348,0.00019026,-0.00025511,0.00007862,-0.00009314,-0.00006402,-0.0
 0127404,-0.00175624,-0.00013414,0.00055130,-0.00018502,0.00065781,0.01
 955651,0.02741315,-0.00088574,-0.00055815,0.00072639,-0.00069485,0.000
 34316,-0.00013323,0.00056588,-0.00008606,-0.00042072,0.00016528,0.0002
 4494,-0.00028486,-0.00020359,0.00053219,0.00110255,0.00118180,0.000107
 33,-0.00057890,-0.00025939,0.01766107,-0.00510024,0.03121780,-0.018244
 48,0.00468901,0.00048327,-0.00069105,0.00074120,0.00008354,-0.00039537
 ,-0.00023449,-0.00006366,0.00000624,-0.00011126,0.00013007,0.00004227,
 0.00005800,-0.00071352,-0.00176810,-0.00162488,-0.00044131,0.00046567,
 -0.00027787,0.02631892,0.03431327,0.05357641,-0.02579730,-0.03197293,-
 0.05212710,-0.17285337,0.01134916,-0.12283002,0.07473224,0.07151143,-0
 .05127664,-0.00359715,-0.03905184,0.00491086,0.00652983,-0.03873186,0.
 08778442,-0.00078327,0.03895751,-0.08266282,0.00509549,-0.00130536,-0.
 01284154,-0.00727404,0.00159913,0.01380025,0.00654215,0.02522353,-0.06
 819371,-0.00128414,-0.00025190,0.00343143,-0.00650994,0.02290121,0.030
 60505,-0.07329897,0.00346055,-0.00105379,-0.00209147,-0.02527580,-0.02
 764878,-0.05922072,-0.06674169,0.07872123,0.00090355,0.00043075,-0.001
 46247,0.06145827,0.06977445,-0.07091351,0.15615637,-0.00044248,-0.0116
 1691,-0.00138799,0.00060595,-0.00078695,0.00202194,0.00032935,-0.00203
 748,-0.14925849,-0.00204573,-0.00598830,-0.00563306,-0.00403945,-0.003
 38870,0.00098698,0.00226232,-0.00066840,-0.00101383,0.00294362,0.01014
 592,-0.02285668,-0.00578083,-0.03429516,0.00120231,-0.00001168,0.00097
 653,-0.00503158,-0.00088879,-0.00167676,0.01947264,0.00674913,0.034035
 65,0.01854960,0.00511382,0.00216409,-0.00068183,-0.00016993,-0.0001924
 2,-0.00115413,-0.00224944,-0.00063606,-0.00902567,0.00142406,0.0086632
 7,-0.02195772,0.00905449,0.01361349,0.01165853,0.00056241,-0.00016045,
 0.00118530,-0.00255942,-0.00127245,-0.00269317,-0.00426412,0.00040721,
 -0.00006581,0.01085966,-0.03160633,0.00443973,0.00522393,0.02929701,0.
 00023027,-0.00001002,-0.00025372,0.00957681,0.00807285,-0.00503126,-0.
 00501303,-0.00103801,0.00116020,-0.03991640,-0.00416132,-0.06126713,-0
 .00294324,-0.00215366,-0.00346111,-0.00001797,-0.00035218,-0.00018547,
 -0.00001780,0.00033515,-0.00087955,0.00087311,-0.00001047,-0.00049067,
 0.01396669,-0.01029499,0.03153949,-0.01159561,-0.00027543,-0.00078868,
 0.00000994,0.00000341,-0.00020536,-0.00009623,0.00080807,0.00064005,0.
 00037325,0.00035000,0.00024464,0.00098419,-0.01494318,0.00585407,-0.01
 583715,0.01441310,-0.00565393,-0.00237690,-0.00305740,-0.00723184,0.00
 001979,-0.00067708,-0.00038736,-0.00038170,-0.00018171,0.00042521,-0.0
 0050724,0.00017831,-0.00007014,0.02885599,-0.00824604,0.03337963,-0.02
 633429,0.01471792,-0.02488560,-0.00148958,0.00015146,0.00109227,0.0003
 4668,-0.00012852,-0.00003819,0.00030642,0.00030400,0.00032430,0.000570
 74,-0.00041563,-0.00074981,0.00087284,-0.00329077,-0.00060473,-0.00060
 472,-0.00043921,0.00074642,-0.00007435,-0.00207270,-0.00229476,-0.0034
 9452,0.00001970,-0.00022597,-0.00028563,-0.00024532,-0.00068340,-0.000
 23370,0.00040809,-0.00073988,-0.00095626,0.00002936,0.01275795,0.00736
 659,-0.00213029,0.00016468,-0.00268148,0.00416634,-0.00934354,-0.00019
 170,0.00013767,-0.00233836,0.00004742,-0.00052771,0.00009733,-0.000759
 38,-0.00128911,-0.00003797,0.00049228,-0.00034874,-0.00024560,0.001311
 94,0.00194417,0.00334497,-0.00022989,0.00008042,-0.00154603,-0.0012446
 1,0.00016330,0.00022214,-0.00036478,-0.00018999,0.00037227,0.00009257,
 0.00007093,-0.00004984,0.00009550,0.00019498,0.00008770,0.00004998,-0.
 00011870,-0.00020948,-0.00056978,-0.00006725,-0.00025214,0.00033955,0.
 00008324,-0.00002207,0.00007197,-0.00017518,0.00057394,0.00028498,-0.0
 0017914,-0.00010120,0.00002992,0.00008771,-0.00008733,0.00000728,0.000
 03854,0.00008172,0.00010393,0.00006958,-0.00001248,-0.00002995,-0.0000
 6434,0.00040651,0.00038312,0.00019335,-0.00025548,-0.00005253,-0.00034
 766,0.00036492,-0.00015999,0.00020197,-0.00039668,0.00037854,0.0000122
 4,-0.00003469,-0.00004016,-0.00002012,0.00007098,-0.00010013,-0.000097
 25,-0.00002447,-0.00000331,0.00011922,0.00011529,-0.00025040,0.0003783
 3,-0.00062970,0.00004149,-0.00023235,0.00031612,0.00047434,0.00012170,
 0.00050353,-0.00050038,-0.00028179,-0.00031707,-0.01975449,0.02011482,
 -0.05122853,0.01208471,0.01484381,0.00826368,0.00271977,-0.01831940,-0
 .00183785,-0.00325140,-0.01626508,0.03764146,-0.00331072,0.01614397,-0
 .03235327,-0.00065176,-0.00666551,-0.00754458,0.00100120,0.00662115,0.
 00730113,-0.00062381,0.00304880,-0.00257264,-0.00019771,0.00008615,0.0
 0047426,0.00143525,0.00356901,0.00402706,-0.00840487,0.00035075,-0.000
 13409,-0.00067583,-0.00355859,-0.00299152,-0.00318922,-0.00798902,0.01
 113608,0.00011030,-0.00040632,-0.00032905,0.00291086,0.00876269,-0.010
 60745,0.01716834,-0.00192620,0.00090174,0.00005488,-0.00027452,-0.0001
 4760,-0.00053380,-0.00030232,0.00052209,-0.01702579,-0.00270375,-0.002
 17338,0.00051674,-0.00073193,-0.00067592,-0.00017785,0.00068050,-0.000
 13873,0.00038193,0.00246770,0.00357705,0.00136966,0.00052124,-0.000455
 25,0.00010512,-0.00013257,-0.00003979,-0.00057956,0.00059431,-0.000214
 40,-0.00114665,-0.00035903,0.00128449,0.00215458,-0.00643624,-0.008081
 49,0.00034064,0.00022450,-0.00104786,0.00013882,-0.00033195,-0.0003336
 5,0.00013564,0.00022942,0.00059722,-0.02340109,-0.00620835,0.02022159,
 -0.00125162,0.00358066,-0.00441183,0.00268727,-0.00068323,-0.00122987,
 -0.00079684,0.00026227,-0.00069667,-0.00104726,-0.05403085,0.12040721,
 -0.00794984,-0.00162422,-0.00909274,0.00088971,-0.00279349,0.00090185,
 0.00007151,-0.00047853,-0.00001377,0.00000817,-0.00084550,-0.00054351,
 -0.00449975,0.00421524,-0.04466040,-0.00008327,-0.00028297,-0.00067443
 ,-0.00027177,0.00003963,-0.00059111,-0.00026267,0.00029454,-0.00009969
 ,0.00010045,0.00010619,0.00000333,0.00064601,0.01021240,0.00204864,0.0
 0133123,0.00014903,-0.00169571,-0.00086809,-0.00018505,0.00028130,-0.0
 0019995,0.00016303,0.00017295,0.00011546,0.00004082,0.00001774,0.00030
 532,0.01246446,-0.01184712,0.01178394,-0.01677713,0.01863813,-0.000425
 01,-0.00157367,-0.00137293,-0.00072088,0.00016696,-0.00097664,-0.00011
 212,0.00027167,0.00016599,-0.00009789,0.00047066,-0.00004201,0.0033488
 1,0.00810615,0.01315017,0.00122632,-0.01355084,-0.01117033,-0.00207747
 ,0.00737236,-0.00000338,0.00114010,0.00037820,0.00153643,-0.00009370,-
 0.00009235,-0.00011693,0.00031965,0.00003818,-0.00043879,0.02392681,0.
 06165673,0.02473693,0.00098135,0.00102787,0.00014998,-0.06531041,0.002
 99499,-0.01160069,-0.00211238,-0.00125428,-0.00049910,-0.00252861,0.00
 051952,0.00027207,-0.00009827,-0.00026137,-0.00000954,0.00035552,0.037
 29206,-0.12763143,-0.03042810,0.00339486,-0.00112080,0.00417391,-0.200
 31904,0.19409859,-0.00253067,0.00503688,-0.00069433,0.00059413,0.00013
 742,0.00138250,-0.00032970,-0.00018146,-0.00004012,-0.00004571,-0.0000
 7149,-0.00017187,0.01067148,0.00936224,0.05340737,0.00151649,0.0003083
 3,0.00390746,-0.27346754,-0.23318182,-0.54989375,0.00049634,-0.0035711
 6,0.00018333,-0.00053453,-0.00033285,-0.00057356,0.00013761,0.00007092
 ,0.00019624,-0.00021938,-0.00008631,0.00008967,-0.00394141,-0.01478963
 ,-0.01530538,-0.00244134,0.00311697,-0.00336920,0.04111366,0.15763325,
 0.26359153,-0.03461095,-0.00165065,0.00480819,0.00058713,0.00041528,0.
 00015143,0.00093933,-0.00025618,0.00002212,0.00003037,-0.00000639,0.00
 009946,-0.00023753,0.01058860,0.00518812,0.02017066,0.00301248,-0.0044
 4649,0.00193515,0.12993805,-0.05350909,0.21858990,-0.14204119,0.047686
 25,0.00129213,-0.00254951,-0.00023992,-0.00014172,-0.00028242,-0.00069
 543,0.00013738,0.00011203,-0.00009729,0.00000585,0.00008454,0.00018235
 ,-0.00065477,-0.02127519,-0.01314896,-0.00342955,0.00210583,-0.0036617
 0,0.24760330,0.26381975,0.49210274,-0.24481262,-0.24201502,-0.47444180
 ,-0.08503152,0.03007573,-0.10556020,0.02581749,0.04025035,-0.02480733,
 0.00352589,-0.03538757,-0.00574530,-0.00300058,-0.03418722,0.08657409,
 -0.00269031,0.03243562,-0.07735761,-0.00505242,-0.00465042,-0.01640263
 ,0.00538371,0.00532220,0.01703483,-0.00276263,0.00488384,-0.01916824,0
 .00074707,0.00050155,0.00090760,0.00428572,0.00595960,0.01083827,-0.03
 081395,0.00085685,-0.00135748,-0.00208637,-0.00497181,-0.00931183,-0.0
 2626289,-0.03402728,0.05672676,0.00060475,0.00063818,-0.00140485,0.021
 51858,0.03098006,-0.05136094,0.07894698,0.00163895,0.00460110,-0.00079
 592,0.00076855,-0.00007614,-0.00141998,-0.00144979,0.00343737,-0.07295
 942,0.00167671,-0.00203608,-0.00209817,-0.00172098,-0.00198145,-0.0011
 8962,0.00058992,0.00076301,0.00123668,-0.00098669,0.00316078,0.0123386
 2,-0.00070338,-0.01210743,-0.00100553,-0.00042873,0.00076227,-0.005168
 53,-0.00055683,-0.00225914,-0.00771648,0.00148084,0.01341034,0.0065278
 5,-0.00108427,-0.00484389,-0.00014598,0.00002137,-0.00026219,-0.001005
 08,-0.00049410,0.00073369,-0.00418695,0.00030389,0.00243059,-0.0233499
 2,-0.00399105,0.01928168,-0.00064566,0.00465274,-0.00596899,0.00413906
 ,-0.00165216,-0.00109859,0.00043227,-0.00047121,-0.00000119,-0.0003798
 6,-0.01665895,0.03896512,-0.00652189,0.00410109,0.00082731,0.00241164,
 -0.00342414,0.00198364,0.00260019,0.00275070,-0.00204191,-0.00055215,0
 .00045868,0.00004264,-0.00148575,0.01164209,-0.02403453,-0.00093859,-0
 .00121005,-0.00054392,-0.00067770,0.00032020,-0.00094532,0.00005348,0.
 00031480,-0.00002367,0.00066657,0.00007142,-0.00047202,0.01199373,-0.0
 2377260,0.00672149,-0.00995578,0.00057082,-0.00182895,0.00047278,-0.00
 070576,0.00019691,-0.00104711,0.00031287,0.00033028,-0.00000876,0.0000
 3411,0.00006904,0.00013621,-0.01968760,0.02001960,-0.02029190,0.019943
 67,-0.01562939,0.00048414,-0.00243552,-0.00164857,-0.00153768,0.000628
 32,-0.00213405,-0.00058288,-0.00015956,0.00038806,0.00006464,0.0003511
 1,0.00003612,0.00907973,-0.02696323,-0.00126259,-0.00691204,0.02278208
 ,0.00319006,-0.00064943,0.00079724,-0.00026194,0.00036409,0.00003368,0
 .00020755,0.00007426,-0.00010179,0.00020048,-0.00016328,0.00014023,-0.
 00028738,0.00491144,0.06244316,0.00576241,0.00103747,-0.00211750,0.002
 66732,-0.03475426,0.00080595,-0.00695628,-0.00258012,-0.00025782,-0.00
 026904,-0.00071999,0.00017905,-0.00033904,0.00032040,0.00023790,-0.000
 20300,0.00006049,0.03846404,-0.07722060,0.00469694,0.00060766,0.000622
 61,0.00212789,-0.10393720,0.11650310,-0.00025693,-0.00259421,-0.002124
 48,0.00003927,-0.00024400,0.00017218,-0.00016796,-0.00010143,-0.000022
 86,0.00029960,-0.00013581,0.00007867,-0.00808057,0.04385789,0.03557822
 ,0.00424054,-0.00232268,0.00424021,-0.11567383,-0.10210256,-0.24851909
 ,0.00038144,0.00028612,0.00014471,-0.00001687,0.00010624,-0.00016279,0
 .00002715,-0.00011375,-0.00020831,-0.00008799,-0.00007451,-0.00011927,
 0.00525491,-0.02054992,-0.00893594,-0.00217918,0.00164939,-0.00326324,
 0.02917971,0.06390043,0.11959988,-0.03255918,-0.00091054,-0.00031254,-
 0.00189493,0.00012692,0.00016357,0.00023225,0.00015674,0.00017538,0.00
 042847,0.00022819,0.00022889,0.00039127,-0.00086438,0.00602297,0.00006
 654,0.00372489,-0.00378010,0.00366890,0.04274218,-0.03213775,0.0636427
 9,-0.04520401,0.02963958,-0.00054614,0.00005938,-0.00046363,-0.0001508
 6,0.00019847,-0.00001139,0.00006125,-0.00001262,-0.00002512,-0.0000579
 3,-0.00010370,0.00003654,0.00242839,-0.03208256,-0.01109278,-0.0020650
 7,0.00027938,-0.00280924,0.10738538,0.09819695,0.21059715,-0.10705503,
 -0.06653530,-0.19623152,-0.19063855,0.03892288,-0.13512405,0.09099719,
 0.11983546,-0.01479998,0.00296533,-0.03560626,-0.01000900,0.00072429,-
 0.03977087,0.11866011,0.00557819,0.03675390,-0.11001815,-0.01241273,0.
 01237625,-0.01661714,0.01143403,-0.00737454,0.02112845,0.00503824,0.01
 786414,-0.04573720,0.00170723,0.00040959,0.00226319,-0.00285534,0.0155
 4607,0.01491084,-0.07432054,0.00167576,-0.00296005,-0.00574326,-0.0158
 9165,-0.01058906,-0.05179924,-0.07892068,0.11987083,0.00171148,0.00394
 784,-0.00516585,0.04846572,0.07637628,-0.10939151,0.17457734,0.0024309
 6,0.00984349,-0.00397537,0.00306422,0.00019247,-0.00251591,-0.00100743
 ,0.00264392,-0.16577940,0.00559822,-0.01525352,-0.01187634,-0.00564291
 ,-0.00389903,-0.00322475,-0.00067347,0.00265428,0.00261666,-0.00293191
 ,0.01893948,0.01639495,-0.00865999,-0.01949339,-0.00355088,-0.00076777
 ,0.00145493,-0.00711810,-0.00063003,-0.00452267,-0.01056534,0.01230101
 ,0.02399451,0.01227804,-0.02013387,-0.04230887,-0.00115917,-0.00104677
 ,-0.00146656,-0.00284323,-0.00296288,-0.00238933,-0.00414622,0.0039105
 1,0.00471767,-0.01353439,-0.01734810,0.02165738,-0.03376346,0.00264397
 ,-0.00236955,0.00331365,-0.00193867,-0.00393581,-0.00518828,-0.0033394
 3,-0.00183846,-0.00209994,0.00015998,0.02929707,-0.04070023,-0.0383122
 2,-0.05751857,0.00066402,-0.00271330,-0.00111273,0.00187266,0.00457045
 ,-0.00384550,-0.00313880,-0.00169263,-0.00464031,0.04582372,0.04115218
 ,0.05705533,-0.00310164,-0.00490429,-0.00462258,-0.00064363,0.00080617
 ,-0.00000614,0.00128393,0.00224027,0.00134421,0.00124453,0.00022514,0.
 00088264,0.00574749,-0.01051884,-0.00067619,-0.00392939,0.00008523,-0.
 00114370,0.00063624,-0.00035396,-0.00015874,-0.00046470,-0.00001086,0.
 00059367,0.00040081,0.00062765,0.00011185,-0.00016190,-0.01218112,0.01
 551910,-0.01234465,0.01172890,-0.01299583,-0.00174224,-0.00751254,-0.0
 0918700,-0.00067587,0.00142983,-0.00063317,0.00076261,0.00108092,0.002
 64491,0.00039716,0.00217734,0.00316617,-0.00163580,-0.00962985,-0.0057
 8769,0.00273005,0.01249227,0.01021555,-0.00093618,0.00113889,0.0014020
 4,0.00021980,-0.00023244,0.00005938,0.00012109,0.00031646,-0.00004086,
 0.00066013,-0.00052592,-0.00065979,0.00096781,0.03774801,-0.00085955,0
 .00000982,-0.00018011,0.00127250,-0.01013687,-0.00273431,-0.00360710,-
 0.00574388,0.00042828,0.00073568,0.00106547,0.00028764,-0.00056789,0.0
 0055092,0.00093375,-0.00070455,0.00005320,0.03281531,-0.05984834,0.010
 47647,-0.00084670,-0.00081841,-0.00137436,-0.04639688,0.07239289,-0.00
 083396,0.00058126,-0.00241827,0.00044081,-0.00001332,0.00081330,-0.000
 41020,-0.00134969,0.00037146,0.00053561,-0.00038281,-0.00003072,-0.003
 70723,0.01853214,0.01948179,0.00088771,-0.00028567,0.00045180,-0.02694
 507,-0.02818549,-0.07031481,-0.00018259,0.00028755,0.00043494,0.000161
 53,0.00001620,-0.00006364,0.00006399,0.00008342,0.00006410,-0.00006510
 ,0.00004034,-0.00010115,0.00268968,-0.00740691,-0.00298563,-0.00061111
 ,0.00028426,-0.00110841,0.00909439,0.01551292,0.03003234,-0.01115079,-
 0.00029912,-0.00009995,-0.00034568,0.00010123,0.00000975,0.00005187,-0
 .00004672,-0.00010598,0.00021644,0.00022219,-0.00001005,-0.00003458,-0
 .00056116,0.00151860,-0.00113630,0.00126935,-0.00110793,0.00133640,0.0
 0813200,-0.00758229,0.01110359,-0.00881777,0.00737785,0.00009626,0.000
 61247,0.00016351,-0.00001458,-0.00008695,0.00013221,-0.00009867,0.0000
 1586,0.00003834,0.00009149,0.00008153,0.00007148,0.00096640,-0.0123164
 3,-0.00363233,-0.00053970,-0.00027240,-0.00087058,0.02577134,0.0231576
 6,0.05164543,-0.02627255,-0.01119174,-0.04754805,-0.26744163,-0.007063
 99,-0.13089846,0.07050376,0.09365702,-0.14389831,0.01401004,-0.0246593
 2,-0.01301545,-0.00621562,-0.02761109,0.09173922,0.00021897,0.02993065
 ,-0.08183043,-0.01471827,0.00503538,-0.00786485,0.00298295,0.00017004,
 0.00750672,-0.00221104,0.03692990,-0.04510178,-0.00367186,-0.00631466,
 0.00820633,0.01379803,0.05303098,0.05672740,-0.10153119,-0.00074714,-0
 .00501388,-0.00456789,-0.03977833,-0.04906356,-0.07737054,-0.10672978,
 0.16302535,0.00130050,0.00435415,-0.00135417,0.05407440,0.09840322,-0.
 15777624,0.24868244,-0.00736955,-0.00981488,-0.00604031,0.00495699,0.0
 0362628,-0.00588946,-0.01183274,0.01979948,-0.23224977,-0.02048806,-0.
 01628654,0.01028177,-0.00710743,-0.00298178,-0.00280593,0.01265341,-0.
 00101621,0.00290204,0.01401406,0.01972730,0.02417457,0.01061374,-0.014
 84522,0.00678277,-0.00112214,-0.00101801,-0.01729350,0.00478231,-0.002
 24758,-0.01531782,-0.01233772,0.01947217,0.00858654,0.00502898,-0.0013
 8817,0.00256381,-0.00059860,0.00052780,-0.00275616,-0.00247987,0.00364
 100,-0.00564331,0.00070276,0.00146561,-0.00098102,0.00488196,-0.000535
 35,0.00118943,0.00217199,-0.00181559,0.00132687,-0.00521246,-0.0019036
 0,0.00113303,-0.00022369,0.00134583,-0.00331563,-0.00744724,0.00807446
 ,-0.00147322,0.00142953,0.00963330,0.00212701,-0.00319753,0.00365702,-
 0.00077072,0.00238153,-0.00235641,0.00376521,0.00141105,-0.00271918,-0
 .00445276,-0.00698815,-0.01219209,-0.00173500,-0.00210688,-0.00188816,
 -0.00084974,-0.00054195,-0.00036962,0.00111087,0.00125452,-0.00156404,
 0.00081289,0.00010288,0.00050712,-0.00064775,0.00386496,0.00148442,0.0
 0102516,-0.00074432,0.00112446,0.00019778,0.00023823,-0.00060657,0.000
 50949,0.00055206,0.00039261,-0.00027854,0.00048231,-0.00000197,0.00043
 187,0.00124297,-0.00176709,0.00111975,-0.00198026,0.00101642,-0.001101
 55,-0.00202743,-0.00429288,0.00008094,-0.00076480,-0.00112442,0.000888
 15,0.00055401,0.00036031,-0.00213162,0.00012716,0.00105292,-0.00002939
 ,0.00540170,0.00288009,0.00204444,-0.00211227,0.00119261,0.00029711,-0
 .00056738,0.00047310,0.00016089,0.00005240,-0.00013505,-0.00031410,0.0
 0037859,0.00002701,0.00029009,0.00030568,-0.00034098,-0.00094068,0.002
 19647,-0.00066207,0.00021762,0.00016681,0.00038994,-0.00084634,-0.0018
 2591,-0.00191748,-0.00397731,0.00002057,0.00054509,0.00019693,0.001415
 05,-0.00009782,0.00007632,-0.00024252,-0.00078508,0.00109206,0.0038124
 6,-0.00317631,0.00425344,-0.00076778,-0.00004146,-0.00129970,-0.003087
 93,0.00591458,-0.00025340,-0.00192210,-0.00171652,-0.00015340,0.000248
 96,0.00015522,0.00005276,0.00012221,0.00024437,-0.00008487,0.00024893,
 0.00032753,0.00027080,0.00161419,0.00161541,-0.00014964,0.00022668,-0.
 00007570,-0.00040516,-0.00065309,-0.00272862,-0.00018845,-0.00019176,0
 .00023158,0.00004279,0.00012626,-0.00012043,-0.00006627,0.00017399,0.0
 0009219,0.00003742,-0.00018329,0.00002224,-0.00018143,-0.00023198,-0.0
 0001788,0.00006594,0.00004221,-0.00014091,0.00113541,0.00067607,0.0007
 2290,-0.00084541,-0.00017956,0.00004676,-0.00003647,0.00015245,-0.0000
 3606,0.00013510,-0.00024496,-0.00002494,0.00013954,0.00021515,-0.00000
 153,-0.00014449,-0.00026146,-0.00022234,-0.00040962,0.00017452,-0.0001
 1641,0.00012133,0.00055535,-0.00044152,0.00011422,-0.00041150,0.000796
 04,0.00023864,-0.00005636,-0.00004087,-0.00010532,0.00009235,0.0000425
 0,-0.00005565,-0.00014419,0.00010437,0.00015822,0.00017269,-0.00002263
 ,-0.00003489,-0.00036145,-0.00051816,-0.00006453,-0.00009477,0.0000070
 6,0.00065320,0.00031135,0.00217832,-0.00078967,0.00008038,-0.00175059,
 -0.16868460,0.10284058,-0.32277206,0.02157808,0.06563831,-0.07243730,0
 .00762797,-0.11889595,0.02213634,0.00278371,-0.13076775,0.29974562,-0.
 01280481,0.11255107,-0.27588825,0.01528020,0.00658747,-0.01920689,-0.0
 1526170,-0.00545985,0.02384948,0.02090640,0.02648155,-0.04712785,-0.00
 350944,-0.00216365,0.00474775,-0.01750061,0.00961383,0.01618325,-0.041
 56142,0.01669225,-0.00571949,-0.00956846,-0.02659077,-0.00628225,-0.03
 573484,-0.06585915,0.09429201,-0.00360916,0.01612693,-0.00440564,0.042
 16256,0.04829119,-0.08730819,0.13832316,-0.00693424,0.00265866,-0.0051
 4782,0.01817258,-0.00342282,-0.00116321,0.00119711,-0.00151070,-0.1300
 0256,0.02462451,-0.00499927,-0.00772653,-0.01464434,-0.00940275,0.0063
 7867,0.00185125,-0.00346576,0.00011475,-0.01337933,0.01711906,-0.00025
 009,-0.00742445,-0.00196486,-0.00312831,0.00348773,0.00091778,-0.00114
 376,0.00064524,-0.00175975,0.00384846,0.00229371,0.00181212,0.00160461
 ,-0.00117355,0.00319633,-0.00189438,0.00210921,-0.00187882,0.00162837,
 -0.00187720,-0.00099386,-0.00186543,0.00125200,0.00083263,0.00033983,-
 0.00429074,0.01146447,0.00005446,0.00319856,-0.00652678,0.00145481,0.0
 0042970,-0.00048481,0.00150882,0.00082358,0.00119783,0.00115692,-0.001
 48079,-0.00578483,0.00139629,0.00514413,0.00448429,-0.00124949,-0.0003
 2459,-0.00222643,0.00178450,0.00160379,-0.00044804,-0.00086115,-0.0020
 0420,0.00136441,-0.00295642,-0.00669666,-0.00706840,0.00003667,-0.0025
 4658,-0.00230596,-0.00030133,0.00048534,0.00035393,-0.00041058,0.00125
 407,-0.00058364,0.00001956,-0.00003011,0.00006174,0.00017470,0.0013830
 4,0.00230766,0.00035754,0.00000008,0.00074007,0.00011069,-0.00029285,-
 0.00002064,-0.00029015,-0.00002974,-0.00008762,0.00009933,0.00046823,-
 0.00041924,0.00011566,-0.00045271,-0.00017704,-0.00040903,0.00012114,0
 .00018821,-0.00083586,-0.00404803,-0.00315319,-0.00009548,0.00098072,0
 .00006379,-0.00011374,0.00044134,-0.00013413,-0.00086139,0.00105604,-0
 .00023282,0.00124799,0.00258887,0.00278347,0.00076205,0.00034497,0.001
 37688,-0.00000243,0.00052504,-0.00035752,0.00038241,-0.00063178,0.0002
 6749,0.00005550,-0.00011871,0.00008848,-0.00007256,0.00013154,-0.00011
 426,0.00029677,-0.00004347,-0.00024715,-0.00004905,0.00017548,0.000013
 39,-0.00059889,-0.00160221,-0.00106657,-0.00346462,0.00099443,-0.00140
 769,0.00081413,-0.00003619,-0.00002631,-0.00043578,-0.00039575,-0.0000
 4899,-0.00031486,0.00183759,0.00028205,0.00291350,-0.00074329,-0.00005
 170,-0.00124630,-0.00003483,0.00234961,-0.00158562,0.00000952,-0.00218
 184,0.00120620,-0.00184159,0.00090214,-0.00015879,0.00007201,-0.000311
 52,-0.00012368,-0.00009654,-0.00016076,0.00083879,-0.00015826,0.001711
 09,-0.00051693,0.00025394,-0.00069286,0.00036810,0.00178287,0.00079384
 ,0.00018822,-0.00029685,0.00022193,0.00005888,0.00024498,-0.00008603,-
 0.00000643,-0.00017057,0.00018117,-0.00009115,0.00019448,-0.00010642,-
 0.00028447,-0.00001988,-0.00017425,0.00017249,0.00001038,-0.00011696,-
 0.00001176,-0.00001974,-0.00002808,-0.00002578,-0.00041830,0.00070449,
 -0.00024607,0.00039683,-0.00078001,0.00008338,0.00005784,-0.00011701,0
 .00015392,0.00004782,0.00001912,0.00004005,-0.00021453,0.00002911,-0.0
 0022695,0.00007639,-0.00017204,-0.00011762,-0.00000327,-0.00003039,-0.
 00002195,0.00005720,0.00034674,0.00015184,-0.00004780,0.00016779,0.000
 00160,-0.00016453,0.00010578,-0.00015068,0.00007631,0.00007525,0.00027
 262,-0.00001592,0.00002388,-0.00028664,0.00009104,-0.00060038,-0.00007
 886,-0.00022541,-0.00001114,-0.00001852,-0.00004893,-0.00006009,0.0001
 0864,0.00033524,0.00029891,-0.01140052,0.01099336,0.01468402,0.0124809
 8,0.03518041,0.02553495,0.00116130,-0.00184106,-0.00027531,-0.00051737
 ,-0.00029106,0.00322821,0.00099641,0.00123703,-0.00394135,0.00061956,-
 0.00153482,0.00080461,0.00002958,-0.00019863,-0.00016448,0.00125183,0.
 00054093,-0.00036500,-0.00010496,0.00000730,-0.00006294,-0.00106605,0.
 00067004,0.00049389,-0.00017138,0.00028404,-0.00030381,0.00018672,-0.0
 0047756,-0.00064480,0.00147453,0.00147725,-0.00236271,-0.00005494,0.00
 001955,-0.00031177,-0.00136650,-0.00134530,0.00348963,-0.00194061,-0.0
 0005948,-0.00024994,-0.00028854,0.00010557,-0.00023294,0.00008525,-0.0
 0018412,0.00008939,0.00369388,-0.00093910,0.00011183,0.00016356,0.0001
 0597,-0.00030908,0.00019588,0.00020365,0.00004128,-0.00009855,0.000859
 82,-0.00029409,-0.00252280,-0.00025947,0.00121193,-0.00008093,-0.00008
 954,-0.00012291,0.00043668,0.00026167,0.00040423,0.00134887,-0.0001737
 9,-0.00162130,0.01145638,-0.00773044,-0.00792220,-0.00073928,0.0002040
 6,-0.00038923,-0.00002161,-0.00003870,-0.00125032,-0.00246222,-0.00092
 477,0.00025969,0.26805129,-0.00848106,-0.01958048,-0.03299041,0.000381
 16,0.00082982,0.00134903,0.00013487,0.00122615,0.00128897,-0.00008914,
 0.00113866,0.00143133,-0.33963489,0.07542831,-0.00835522,-0.03176499,-
 0.01840800,-0.00028705,0.00105997,-0.00028561,0.00186773,0.00126154,-0
 .00239703,-0.00227587,-0.00018925,0.00013146,0.61781919,-0.37816644,0.
 56035333,-0.00061818,-0.00138886,-0.00618606,0.00034664,-0.00126194,0.
 00006481,-0.00060632,-0.00060800,0.00049026,0.00073353,0.00047383,0.00
 020263,-0.29286437,0.35184428,-0.61627747,0.29621764,0.00091895,0.0012
 2698,0.00066241,-0.00023226,0.00032165,-0.00011322,0.00013056,-0.00023
 173,-0.00077459,-0.00062167,-0.00028271,-0.00012547,0.35177264,-0.0394
 9173,0.43111219,-0.35515144,0.04376689,-0.00485396,-0.00310641,-0.0070
 4131,0.00065935,-0.00179486,-0.00009868,-0.00054259,-0.00025034,0.0007
 7826,0.00102941,-0.00006686,-0.00051089,-0.61631874,0.43122916,-0.5487
 1162,0.62338606,-0.43291024,0.55711433,-0.00023766,-0.00019457,0.00220
 723,0.00014405,0.00011913,0.00017367,0.00043758,0.00034628,0.00072421,
 0.00012374,0.00018042,0.00027815,0.01916933,-0.00406840,0.01003070,-0.
 00406562,0.00275222,-0.00430102,-0.02093129,-0.00301577,-0.00089528,-0
 .00448506,-0.00004994,0.00023602,0.00000864,-0.00062165,-0.00070537,-0
 .00059655,-0.00000333,-0.00050613,-0.00120060,-0.00703289,-0.01586601,
 -0.02733511,0.00533218,-0.00383941,0.00675674,0.00002346,0.01740924,0.
 00057846,0.00012259,-0.00064244,0.00007606,0.00028474,0.00036842,-0.00
 005665,-0.00005472,0.00030927,0.00039422,0.00013828,0.00042395,0.00831
 939,-0.02249385,0.01219028,-0.00281163,0.00254332,-0.00358266,-0.01795
 426,0.01582049,-0.03011785,0.00032746,-0.00031988,0.00031030,-0.000001
 83,-0.00012008,-0.00020252,0.00002428,0.00000802,-0.00010663,0.0000549
 7,0.00004018,0.00007772,-0.00258953,-0.00008683,-0.00252201,0.00085669
 ,0.00043100,0.00094149,0.00535988,0.00536794,0.01145441,-0.00403191,0.
 00014465,0.00073083,0.00064407,0.00011507,-0.00006145,0.00010641,0.000
 08190,0.00012437,0.00002922,-0.00000765,0.00010024,0.00015587,0.003384
 99,-0.00368471,0.00402209,0.00075995,-0.00146993,0.00014281,0.00084147
 ,0.00416695,0.00363915,-0.00532037,0.00009370,0.00057845,-0.00011457,0
 .00090297,-0.00006676,-0.00027762,-0.00018959,0.00008928,0.00011182,0.
 00009012,-0.00010314,0.00003074,0.00008352,-0.00051779,-0.00164779,-0.
 00287282,0.00113140,-0.00039441,0.00205257,0.00884132,0.01103145,0.021
 05103,-0.00995277,-0.00873963,-0.02111781,0.57224044,-0.08026493,0.268
 44350,-0.25786765,-0.38113165,0.06042123,-0.00087916,0.21329475,-0.002
 17082,-0.01786506,0.22412613,-0.49335690,0.03737073,-0.21209865,0.4543
 6949,0.00408207,0.01968617,0.09389048,0.00817286,-0.02754102,-0.100409
 46,0.11596436,-0.14182076,0.23448206,0.00217297,0.01637999,-0.00958317
 ,-0.13959167,-0.15281796,0.01137060,0.35951331,-0.01190667,0.01683098,
 0.01246315,0.14333839,-0.02679470,0.26220399,0.36823208,-0.35862985,0.
 00392445,-0.03162917,0.00718563,-0.23487125,-0.34885391,0.32794274,-0.
 68543692,0.01281913,0.03071149,0.01839299,-0.03557878,-0.00312126,0.02
 357237,0.02393968,-0.03823865,0.63877853,0.01920002,0.22703359,0.00867
 301,0.01846725,0.00717238,-0.00033954,-0.01359392,0.00551109,-0.005061
 18,-0.01898060,-0.23886444,0.00032498,0.00749094,0.22699636,-0.0017574
 2,0.00169074,0.00062546,0.02152206,-0.00691788,0.01341101,-0.01086481,
 -0.00178581,-0.23824515,0.00437445,-0.00044733,-0.00370820,-0.00068586
 ,0.00495374,-0.00003427,-0.00132414,-0.00258283,0.00794985,-0.00159221
 ,-0.00605526,-0.01065701,0.00619268,-0.00702695,-0.00740615,-0.0194945
 7,-0.00558080,0.00958014,-0.00420965,-0.00270713,-0.00503740,0.0126102
 3,0.01013023,-0.00169350,-0.00188621,-0.00149632,0.01470655,-0.0075064
 7,-0.00875225,-0.01082696,-0.00611624,0.01299306,-0.00139996,-0.008614
 36,-0.01299107,0.00026977,0.01517931,-0.00251075,-0.00280875,0.0162328
 2,0.00851457,0.02714969,-0.00234783,-0.00050783,-0.00427595,-0.0006033
 4,0.00177783,0.00062085,-0.00193362,-0.00187474,0.00245391,0.00357586,
 0.00038462,0.00058766,-0.00630802,0.00439474,-0.00915001,0.00783300,0.
 00230090,-0.00211232,0.00248383,-0.00036835,0.00148416,0.00046033,0.00
 030023,0.00038509,-0.00173830,-0.00168635,-0.00020680,0.00001052,0.003
 97046,-0.00240441,0.00460641,-0.00491716,0.00321881,-0.00265547,-0.002
 10182,-0.00545685,-0.00061832,0.00396545,0.00092463,-0.00171039,-0.002
 00714,0.00406928,0.00481340,0.00010812,-0.00084771,-0.00939531,0.00529
 939,-0.01143558,0.00981576,-0.00622087,0.01252334,-0.00186819,-0.00265
 515,0.00133803,-0.00050355,0.00038746,-0.00010474,0.00068047,0.0015200
 7,-0.00202005,0.00105160,0.00042951,0.00042662,-0.00070967,0.00185719,
 -0.00026629,-0.00013336,0.00074916,0.00017710,0.00105303,-0.00524468,-
 0.00324874,-0.00834584,-0.00237410,0.00494774,-0.00084581,-0.00242216,
 -0.00344582,0.00788739,0.01016097,0.00057065,0.00112786,0.00211114,-0.
 00684817,-0.00056857,0.00045743,-0.00029665,0.00056238,-0.00219393,0.0
 0845192,-0.00015637,-0.00411792,-0.00625902,-0.00169911,0.00366376,-0.
 00096173,-0.00137116,-0.00138659,0.00519329,0.00311947,0.00094913,0.00
 080607,-0.00011953,-0.00098383,-0.00065336,0.00000855,0.00103895,0.000
 63679,0.00110672,0.00152723,0.00228894,-0.00204716,-0.00041788,0.00149
 104,-0.00002899,0.00005230,-0.00003234,0.00045925,0.00038407,-0.001402
 25,0.00165778,0.00014838,0.00041792,0.00005277,0.00042904,0.00024124,-
 0.00008269,-0.00034888,-0.00042678,0.00042965,-0.00049468,-0.00088855,
 -0.00044062,-0.00027254,-0.00072359,0.00093117,0.00056657,-0.00102799,
 0.00032637,0.00052535,0.00118016,-0.00144715,-0.00080427,0.00047702,0.
 00026983,-0.00045359,-0.00089706,-0.00129140,0.00028512,-0.00006788,0.
 00039449,-0.00009430,-0.00013093,-0.00069073,0.00024766,0.00119027,0.0
 0157492,0.00069445,-0.00013539,0.00026461,-0.00051355,0.00014495,0.000
 14621,0.00018014,0.00055813,-0.00159895,-0.00003298,0.00006271,-0.0002
 6835,0.00015007,-0.00029484,-0.00006076,-0.00064089,-0.00041391,-0.000
 65739,-0.00134465,-0.00105099,0.00059972,0.00150742,0.00112935,1.00125
 974,0.19378873,-0.31776418,-0.31371852,-0.59556122,0.40576086,-0.02634
 454,-0.01054439,-0.00061320,0.00266687,0.00886720,-0.00456304,0.029004
 49,0.00048799,-0.00263342,0.01059630,-0.00270117,-0.01395689,0.0009257
 5,-0.00204485,0.00260712,0.19422535,-0.20029036,0.34710991,0.00396170,
 0.01101874,-0.00260363,-0.23071058,-0.22299931,-0.00473546,0.58725072,
 0.00059231,0.00744696,0.00498456,0.19360597,0.00348656,0.38512855,0.57
 843299,-0.68827177,-0.00095032,-0.02506093,0.00747629,-0.33194387,-0.5
 6660061,0.66329034,-1.15278548,0.00827087,-0.03128744,0.01759737,-0.02
 058142,-0.00760878,0.03165810,0.03282628,-0.05625063,1.09502757,0.0378
 0128,0.32956433,0.00213671,0.00963648,-0.00223315,0.00062750,0.0012965
 2,0.00004539,-0.00410532,-0.04076504,-0.32793448,-0.06537303,-0.000182
 12,0.32442366,0.00216679,-0.00165399,0.00351828,-0.00203312,-0.0042453
 5,0.00553672,0.07400008,0.00746091,-0.33100736,-0.00823213,0.00878060,
 0.00051553,0.00320149,0.00064760,-0.00153242,0.00098526,-0.00337445,0.
 00430946,0.00185139,-0.00817799,-0.00950540,0.00859344,-0.01313281,0.0
 0043141,-0.01805367,0.00074240,0.00045248,-0.00104930,-0.00293062,-0.0
 0428495,0.01284259,0.01244681,-0.00065477,-0.00127103,-0.00449075,0.01
 712416,-0.01213232,0.01773162,-0.01502486,-0.00147765,-0.00120301,0.00
 126045,-0.00683005,-0.01662924,0.00231423,0.01379442,-0.00620625,-0.00
 218336,0.01591299,0.00413254,0.02563444,-0.00392593,0.00274615,-0.0058
 0256,-0.00048314,-0.00038093,0.00000406,-0.00172651,-0.00295759,0.0040
 4479,0.00404294,-0.00039291,0.00019603,-0.00544418,0.00494809,-0.00912
 265,0.00770153,0.00325338,-0.00140275,0.00415647,-0.00035695,0.0006992
 4,0.00017889,0.00031628,0.00082053,-0.00277894,-0.00319656,-0.00023551
 ,-0.00073987,0.00436010,-0.00322102,0.00416936,-0.00473800,0.00320921,
 -0.00551042,0.00332967,-0.00647822,0.00001779,0.00013957,-0.00051036,-
 0.00175018,-0.00339975,0.00407104,0.00626310,-0.00088829,-0.00064220,-
 0.00946193,0.00512952,-0.01060055,0.01059025,-0.00562066,0.01359264,-0
 .00209276,-0.00238484,0.00207448,-0.00036312,-0.00018104,0.00007991,0.
 00108930,0.00180808,-0.00259544,0.00060420,0.00048441,0.00014354,-0.00
 097659,0.00217969,-0.00028412,-0.00008447,0.00074859,0.00022889,0.0017
 3300,-0.00759680,0.00028445,-0.00981415,-0.00084139,0.00101724,-0.0005
 1194,-0.00370260,-0.00412661,0.00910988,0.01200957,0.00102116,0.000351
 20,0.00270557,-0.00916477,-0.00085350,0.00051806,0.00026300,0.00097482
 ,-0.00257972,0.01132759,-0.00093446,-0.00130197,-0.00648435,-0.0003013
 2,0.00056649,-0.00064111,-0.00207547,-0.00144763,0.00506290,0.00309576
 ,0.00108607,0.00040046,0.00001951,-0.00171246,-0.00098879,0.00009580,0
 .00135128,0.00097650,0.00097168,0.00219573,0.00308057,-0.00210425,-0.0
 0036676,0.00172179,-0.00023663,0.00012185,0.00013880,0.00051738,0.0004
 9871,-0.00174253,0.00200391,0.00011726,0.00040511,0.00002132,0.0002372
 0,0.00013937,-0.00008024,-0.00038684,-0.00037750,0.00009044,-0.0005126
 9,-0.00087151,-0.00021192,0.00001833,-0.00181477,0.00088064,0.00028355
 ,-0.00018630,0.00051631,0.00068607,0.00134758,-0.00183966,-0.00101051,
 0.00042703,0.00028025,-0.00045068,-0.00068255,-0.00114152,0.00025713,-
 0.00013269,0.00033513,-0.00007516,-0.00062206,-0.00073751,0.00029127,0
 .00166376,0.00194390,0.00025220,0.00003156,0.00023216,0.00025224,0.000
 24622,0.00012640,0.00008730,0.00052026,-0.00200651,-0.00011132,-0.0000
 4620,-0.00025774,-0.00001820,-0.00041156,-0.00000573,-0.00071654,-0.00
 040885,-0.00061895,-0.00145204,-0.00140618,0.00058646,0.00170636,0.001
 47476,0.00444458,-1.16736395,2.85301988,-0.07688316,-0.05067964,-0.515
 93821,0.13011653,1.20599695,0.00435077,-0.13578837,1.18782942,-2.83721
 257,-0.01801284,-1.15944917,2.72578705,-0.00613740,0.01165312,0.550524
 05,0.00660608,-0.00232047,-0.54029710,0.02139041,-0.04116363,0.0641774
 9,-0.00308024,0.00962935,-0.00007301,-0.02671768,-0.01779190,0.0017988
 2,0.05313093,-0.01638770,0.03834209,0.00755996,0.03406530,-0.04548599,
 0.05910040,0.09667599,-0.08153401,0.01378395,-0.03821685,-0.00476841,-
 0.06563033,-0.05798321,0.07927880,-0.15202788,0.02055027,0.01042571,0.
 01200357,-0.05531604,-0.00253265,0.00666948,0.00202366,-0.00869298,0.1
 3081754,-0.02815721,0.04160896,0.00292460,-0.00093096,0.01896096,0.000
 49154,-0.00067036,0.00498205,-0.00225650,0.03047194,-0.06769875,0.0008
 7382,0.00075119,0.05206121,-0.00001150,-0.00005776,-0.00047043,0.00538
 569,0.00107096,0.00488037,-0.00337751,0.00033590,-0.05603102,-0.003423
 73,-0.01254810,-0.00104707,-0.00197823,0.01010952,0.00123390,0.0023780
 9,-0.00177058,0.00156495,0.00071508,-0.00041026,-0.00332568,0.00809243
 ,0.01888384,-0.04212134,0.01068528,-0.02327938,0.03762355,-0.01677890,
 -0.00162937,0.00017260,0.00168650,0.00162447,0.00201203,-0.00239547,0.
 00176667,0.01067896,0.01710094,-0.04064041,-0.00275940,-0.01804238,0.0
 3774405,-0.00683206,-0.00335105,-0.00263099,0.00014606,0.00284493,-0.0
 0163284,-0.00003023,0.00660048,0.00635077,0.01912113,-0.00049080,-0.00
 212033,-0.00294637,-0.00026336,0.00413658,0.00190480,-0.00076848,-0.00
 091990,0.00097948,0.00121662,-0.00026644,0.00004294,-0.00517250,0.0014
 7443,-0.00553776,0.00604251,0.00170749,-0.00145440,0.00162384,0.000519
 82,0.00090543,0.00135258,0.00058789,0.00017962,-0.00070389,-0.00095168
 ,-0.00038187,0.00033764,0.00094021,-0.00100817,0.00168131,-0.00387134,
 0.00254937,-0.00073586,-0.00462856,-0.00331104,-0.00018366,0.00726038,
 0.00392448,-0.00027446,-0.00123130,0.00114248,0.00177152,-0.00047827,-
 0.00028131,-0.00584612,0.00255356,-0.00933359,0.00596576,-0.00544017,0
 .00762333,0.00041324,-0.00349364,0.00159396,-0.00129985,0.00338551,-0.
 00104336,0.00009752,0.00050570,-0.00068012,0.00036118,0.00004537,0.000
 08701,-0.00024018,0.00054599,-0.00016764,-0.00050357,0.00153522,-0.000
 19952,0.00011110,0.00510305,-0.01630995,-0.00004617,-0.00697224,0.0169
 7779,-0.00189329,-0.00073665,-0.00059242,0.00121798,0.00193841,0.00015
 786,-0.00009226,0.00213070,-0.00610334,-0.00007562,0.00131721,-0.00091
 046,0.00153246,-0.00250958,0.00621141,0.00655689,-0.01408308,0.0007783
 0,-0.00702312,0.01502061,-0.00226089,-0.00047207,-0.00026705,0.0008561
 3,0.00025483,0.00032907,-0.00015798,0.00074714,-0.00266361,-0.00026207
 ,-0.00032533,0.00188840,0.00072006,0.00076453,0.00020556,0.00012313,-0
 .00042235,0.00014243,0.00032867,0.00028996,-0.00032518,0.00004166,0.00
 003090,0.00027543,-0.00042535,0.00024440,-0.00008209,0.00032524,-0.000
 37097,0.00061334,0.00055247,-0.00006042,-0.00046761,-0.00049765,0.0010
 6057,-0.00027091,-0.00050287,-0.00077209,-0.00021075,0.00067059,0.0003
 7400,0.00050267,-0.00138430,-0.00006454,-0.00008254,0.00060323,-0.0004
 2002,-0.00034104,0.00035876,0.00004981,-0.00021815,-0.00125430,-0.0007
 9627,0.00024979,0.00012049,0.00043189,-0.00001457,0.00056910,-0.000429
 90,0.00011460,0.00031642,0.00012438,0.00095140,0.00017909,0.00051986,-
 0.00141712,0.00018035,0.00023773,0.00035072,-0.00000143,-0.00069384,0.
 00028649,0.00002938,0.00007242,0.00056186,-0.00004983,-0.00008352,-0.0
 0073972,-0.00048442,-0.00035485,-0.00084865,0.00020331,0.00017783,0.00
 085502,-0.00005646,0.00316912,0.00216013,0.00194504,-0.00075886,0.0021
 1147,0.00437720,0.00016381,-0.00014004,0.00018625,0.00012338,0.0006531
 9,0.00007833,0.00111168,-0.00058672,-0.00015884,0.00064419,-0.00018360
 ,0.00094619,0.00008521,-0.00097113,-0.00055771,-0.00072605,-0.00063453
 ,0.00105962,0.00003183,0.00017753,-0.00030549,0.00059300,-0.00060889,-
 0.00129237,0.00121182,-0.00015177,-0.00010966,0.00004669,0.00048138,0.
 00151481,0.00007432,0.00078261,-0.00208850,-0.00007783,0.00012174,-0.0
 0030765,-0.00027935,-0.00080792,0.00231569,-0.00303185,0.00017932,-0.0
 0041208,-0.00018237,0.00002837,-0.00006131,0.00020425,-0.00000389,0.00
 012013,0.00287155,0.00023259,-0.00041887,-0.00032288,0.00019741,-0.000
 01215,-0.00012723,0.00015508,-0.00024486,-0.00015747,-0.00028826,0.000
 68582,0.00061879,-0.00002244,-0.00065610,-0.00038143,0.00005938,-0.000
 19094,0.00006319,-0.00008027,0.00025588,0.00020660,0.00032847,0.000866
 10,0.00085114,-0.00189178,-0.00063354,-0.00011495,-0.00013353,-0.00091
 485,-0.00023322,0.00014659,0.00005742,0.00079592,0.00063667,0.00040746
 ,0.00890145,0.00270449,0.00509263,0.00702799,0.00024980,-0.00020618,0.
 00005914,0.00003299,0.00012037,-0.00215093,-0.00156201,-0.00039918,-0.
 00082769,-0.00488622,0.00457457,0.00201999,-0.00047850,0.00359235,-0.0
 0069356,-0.00056692,-0.00106165,-0.00036130,0.00046356,0.00005227,-0.0
 0050868,0.00033414,-0.00045762,0.00461131,-0.00785068,0.00734958,-0.00
 122764,0.00081382,-0.00154247,0.00003570,-0.00019633,0.00004672,0.0000
 4964,0.00006406,0.00038968,-0.00009728,-0.00032901,-0.00018410,-0.0061
 2193,0.00118452,-0.00557025,0.01304050,0.00037500,-0.00199954,-0.00054
 454,0.00024878,0.00041145,0.00067977,-0.00019730,-0.00003878,0.0000058
 2,-0.00004157,-0.00010426,-0.00032419,0.00445796,-0.00363374,0.0065059
 5,-0.01095684,0.00951096,-0.00179583,0.00017211,-0.00282879,0.00030371
 ,-0.00004713,0.00040636,-0.00004805,-0.00034099,-0.00016389,0.00026872
 ,-0.00002000,0.00004862,-0.00368059,0.00116008,-0.00763349,0.01126563,
 -0.01371326,0.01275075,-0.01130598,-0.00160034,-0.01705135,0.00214901,
 0.00226418,0.00565039,0.00147295,-0.00419223,-0.00073579,0.00000972,-0
 .00554008,-0.00152441,-0.01293338,0.01290229,0.01154408,0.00807825,-0.
 01164140,-0.00119514,-0.26155485,-0.02044003,0.00220795,-0.03128025,0.
 00381197,0.00276246,0.00811440,0.00066540,-0.00467538,0.00023768,0.001
 86685,-0.00454408,-0.00109317,0.00719159,0.06049146,0.05558074,0.02545
 777,-0.04313835,0.01396191,1.13182736,-0.09943662,-0.02792822,-0.00051
 322,-0.04733515,0.00654409,0.00558733,0.01340152,0.00265530,-0.0106099
 8,-0.00304593,0.00216485,-0.01027518,-0.00171293,0.00824745,0.06490636
 ,0.03549840,0.02022180,-0.04662574,0.01080333,2.43261362,2.57094488,4.
 10595803,0.01210747,0.00111341,0.01915243,-0.00220642,-0.00220669,-0.0
 0514487,-0.00139240,0.00426475,0.00045143,-0.00056993,0.00493561,0.000
 79391,0.00885497,-0.01062585,-0.01104158,-0.01375722,0.01775538,-0.005
 11844,0.27408428,-1.15038090,-2.44451890,-0.27712075,0.01492352,-0.005
 61316,0.02068471,-0.00362942,-0.00276540,-0.00761805,-0.00068054,0.004
 72588,0.00196846,-0.00017879,0.00503757,0.00195991,-0.00552129,-0.0660
 3994,-0.05398830,-0.01603798,0.03899226,-0.00117272,-1.12401978,0.0863
 3256,-2.57341446,1.13514429,-0.06066977,0.02712562,-0.00186844,0.04399
 280,-0.00596643,-0.00529496,-0.01263612,-0.00278391,0.01011708,0.00298
 212,-0.00177824,0.01024015,0.00184699,-0.00809466,-0.06232427,-0.03733
 983,-0.02462700,0.05401618,-0.01338289,-2.42930140,-2.61646619,-4.1135
 6727,2.44542603,2.61158045,4.12810420\\@
 The archive entry for this job was punched.


 MY DESCRIPTION OF EXPERIENCE IS NOT WHAT HAPPENS
 TO A MAN.  EXPERIENCE IS WHAT A MAN DOES WITH WHAT
 HAPPENS TO HIM.
                         - CHUCK KNOX, SEATTLE SEAHAWKS, 1985
 Job cpu time:       0 days  0 hours  0 minutes 17.6 seconds.
 Elapsed time:       0 days  0 hours  3 minutes 22.6 seconds.
 File lengths (MBytes):  RWF=     44 Int=      0 D2E=      0 Chk=     39 Scr=      1
 Normal termination of Gaussian 16 at Wed Oct 15 10:38:59 2025.
