8
Coordinates from ORCA-job job
  B   0.00004731196869     -0.00000003770735      0.03897527559494
  N   -0.00000162535879     -0.00000002821282      1.68490348710372
  H   0.94758929853700      0.00000152949737      2.04977641239104
  H   -0.47380350631411      0.82061311109941      2.04971972824438
  H   -0.47380096593800     -0.82061461456501      2.04971978885704
  H   -1.16574294252343      0.00000126521495     -0.26950275445623
  H   0.58285823472617      1.00950814437782     -0.26959744705155
  H   0.58285619490247     -1.00950936970437     -0.26959749068333
