43
Converted from SDF
O  -0.6923  -0.1549   0.4068
O   2.1500   2.7599   0.3222
O   0.3983   1.7946  -0.8339
O  -1.4554  -2.3104   0.1407
N   3.1998  -0.3456  -0.8103
C   3.0908   0.1240   0.5870
C   2.5793  -1.6811  -0.7568
C   1.6155   0.5331   0.8254
C   3.4745  -1.1044   1.4223
C   3.1264  -2.3020   0.5333
C   1.0563  -1.4497  -0.6882
C   0.6422  -0.6278   0.5429
C   4.5776  -0.3774  -1.2942
C   1.2951   1.7488  -0.0027
C  -1.6463  -1.1061   0.2095
C   1.9565   3.9831  -0.3951
C  -2.9892  -0.4858   0.0823
C  -3.9396  -1.1079  -0.7013
C  -3.2455   0.6932   0.7519
C  -5.2013  -0.5255  -0.8207
C  -4.5074   1.2756   0.6326
C  -5.4853   0.6662  -0.1538
H   3.7627   0.9639   0.7973
H   2.8085  -2.2915  -1.6377
H   1.4706   0.8389   1.8709
H   2.9520  -1.1442   2.3837
H   4.5505  -1.1078   1.6340
H   4.0353  -2.8803   0.3290
H   2.4109  -2.9750   1.0167
H   0.7130  -0.9525  -1.6054
H   0.5924  -2.4399  -0.6927
H   0.6616  -1.2861   1.4225
H   4.6033  -0.7386  -2.3281
H   5.2438  -1.0098  -0.6987
H   4.9938   0.6360  -1.3059
H   0.9563   4.3820  -0.2010
H   2.1073   3.8209  -1.4667
H   2.6972   4.7053  -0.0417
H  -3.7293  -2.0340  -1.2280
H  -2.5060   1.1805   1.3803
H  -5.9626  -0.9994  -1.4335
H  -4.7299   2.2020   1.1540
H  -6.4679   1.1195  -0.2463
