4
Properties=species:S:1:pos:R:3:forces:R:3 Formaldehyde=T (H2CO)=T charge=0.0 spin=1.0 energy=-3115.946654617276 free_energy=-3115.946654617276 stress="2.1319143644503193e-11 0.0 -4.6710039540328835e-21 0.0 0.0 0.0 -4.6710039540328835e-21 0.0 -5.287341759659129e-12" pbc="F F F"
C       -0.00000000       0.00000000      -0.00094048       0.00000000       0.00000000       0.00000074
O        0.00000000       0.00000000       1.19720738      -0.00000000       0.00000000       0.00000061
H        0.93887080       0.00000000      -0.58313345      -0.00000325       0.00000000      -0.00000068
H       -0.93887080       0.00000000      -0.58313345       0.00000325       0.00000000      -0.00000068
