21
Properties=species:S:1:pos:R:3:forces:R:3 Converted=T from=T SDF=T charge=0.0 spin=1.0 energy=-17653.5912077067 free_energy=-17653.5912077067 stress="-6.83957813673101e-13 4.665143857793455e-13 -2.417040542474217e-13 4.665143857793455e-13 -6.304337325769976e-13 -4.2600367140638513e-14 -2.417040542474217e-13 -4.2600367140638513e-14 9.555725698924195e-14" pbc="F F F"
O        1.22623846       0.80949357       0.67152553       0.00000010       0.00000012      -0.00000023
O       -0.75573724      -2.75996238      -0.46571861       0.00000016       0.00000002       0.00000025
O        1.15990371      -1.89635441       0.27580381      -0.00000020      -0.00000035      -0.00000022
O        1.81230584       0.53171916      -1.48686934      -0.00000022       0.00000008       0.00000008
C       -0.11212008       0.75285051       0.33628675       0.00000004      -0.00000014       0.00000040
C       -0.74088583      -0.44864312       0.00437116      -0.00000000       0.00000004      -0.00000026
C       -0.82814044       1.93366421       0.40332431       0.00000005       0.00000003       0.00000033
C       -2.10813665      -0.42529330      -0.26908992      -0.00000029       0.00000008       0.00000049
C       -2.18708197       1.93422332       0.13706492       0.00000018       0.00000025      -0.00000054
C       -2.82969776       0.75297211      -0.20355099      -0.00000020       0.00000027       0.00000002
C        0.00816715      -1.73242130      -0.03752125       0.00000038      -0.00000023       0.00000029
C        2.12963142       0.58969364      -0.33576165       0.00000007      -0.00000017      -0.00000006
C        3.50720378       0.45154103       0.22641206      -0.00000003       0.00000001       0.00000008
H       -0.30189369       2.84181170       0.66367914      -0.00000008       0.00000039      -0.00000030
H       -2.60129862      -1.34969770      -0.53066152       0.00000041      -0.00000002      -0.00000027
H       -2.74276370       2.86116727       0.19113462      -0.00000039      -0.00000011       0.00000017
H       -3.88979917       0.74892379      -0.41673468      -0.00000028      -0.00000006      -0.00000007
H        3.69780018       1.22401904       0.96915262       0.00000034      -0.00000026      -0.00000001
H        4.23413579       0.50018244      -0.57808212      -0.00000025      -0.00000007       0.00000022
H        3.56531223      -0.51786978       0.72187717       0.00000033       0.00000026      -0.00000004
H       -0.18134342      -3.53931980      -0.45614200      -0.00000013      -0.00000015      -0.00000034
