5
Properties=species:S:1:pos:R:3:forces:R:3 charge=0.0 spin=1.0 energy=-1101.8189244103799 free_energy=-1101.8189244103799 stress="5.1125827469017655e-12 1.402641812588136e-22 2.805283625176272e-22 1.402641812588136e-22 5.105443888850666e-12 -1.0566571729193443e-21 2.805283625176272e-22 -1.0566571729193443e-21 5.112582744956768e-12" pbc="F F F"
C       -0.00000000       0.00000000      -0.00000000      -0.00000000       0.00000000       0.00000000
H        0.62806717       0.62806717       0.62806717      -0.00000024      -0.00000024      -0.00000024
H       -0.62806717      -0.62806717       0.62806717       0.00000024       0.00000024      -0.00000024
H        0.62806717      -0.62806717      -0.62806717      -0.00000024       0.00000024       0.00000024
H       -0.62806717       0.62806717      -0.62806717       0.00000024      -0.00000024       0.00000024
