11
Properties=species:S:1:pos:R:3:forces:R:3 charge=0.0 spin=1.0 energy=-3240.7784119503413 free_energy=-3240.7784119503413 stress="1.1437340574243286e-12 -3.522372549044759e-23 3.2725391509977147e-21 -3.522372549044759e-23 -1.4891356155977207e-12 -5.163989450949613e-21 3.2725391509977147e-21 -5.163989450949613e-21 4.829007668605987e-13" pbc="F F F"
C       -0.00000000      -0.00000000       0.58973472       0.00000000      -0.00000000      -0.00000003
C       -0.00000000       1.26523034      -0.25910768       0.00000000       0.00000049       0.00000007
C        0.00000000      -1.26523034      -0.25910768       0.00000000      -0.00000049       0.00000007
H       -0.87418939      -0.00000000       1.24596441       0.00000009      -0.00000000      -0.00000021
H        0.87418939      -0.00000000       1.24596441      -0.00000009      -0.00000000      -0.00000021
H       -0.00000000       2.16493653       0.35734237      -0.00000000       0.00000027       0.00000018
H        0.00000000      -2.16493653       0.35734237      -0.00000000      -0.00000027       0.00000018
H        0.88081820       1.30159134      -0.90371273      -0.00000023      -0.00000022      -0.00000001
H       -0.88081820       1.30159134      -0.90371273       0.00000023      -0.00000022      -0.00000001
H       -0.88081820      -1.30159134      -0.90371273       0.00000023       0.00000022      -0.00000001
H        0.88081820      -1.30159134      -0.90371273      -0.00000023       0.00000022      -0.00000001
