8
Properties=species:S:1:pos:R:3:forces:R:3 charge=0.0 spin=1.0 energy=-2171.254946691941 free_energy=-2171.254946691941 stress="-2.8126086227706306e-13 -1.4774446543639814e-20 4.673138745503963e-21 -1.4774446543639814e-20 2.5579826365867066e-13 1.6247562057920225e-12 4.673138745503963e-21 1.6247562057920225e-12 1.9430867443897525e-13" pbc="F F F"
C        0.00000000      -0.00000014       0.76186470       0.00000000      -0.00000008      -0.00000005
C        0.00000000       0.00000014      -0.76186470      -0.00000000       0.00000008       0.00000005
H        0.00000000       1.01608295       1.15820526       0.00000000      -0.00000007      -0.00000014
H       -0.87995384      -0.50804180       1.15820495      -0.00000002      -0.00000003       0.00000008
H        0.87995384      -0.50804180       1.15820495       0.00000002      -0.00000003       0.00000008
H        0.00000000      -1.01608295      -1.15820526      -0.00000000       0.00000007       0.00000014
H       -0.87995384       0.50804180      -1.15820495      -0.00000002       0.00000003      -0.00000008
H        0.87995384       0.50804180      -1.15820495       0.00000002       0.00000003      -0.00000008
