14
Properties=species:S:1:pos:R:3:forces:R:3 charge=0.0 spin=1.0 energy=-4310.303679634815 free_energy=-4310.303679634815 stress="-1.2591789119929155e-14 -2.0232377615618153e-14 7.750492664986684e-17 -2.0232377615618153e-14 -3.72496326904186e-14 -1.3670218833354064e-16 7.750492664986684e-17 -1.3670218833354064e-16 4.7227787244250306e-14" pbc="F F F"
C        0.36104575       0.04143703       0.02428573       0.00000018      -0.00000021      -0.00000018
C        1.76987331      -0.53737208       0.02428570       0.00000016      -0.00000010       0.00000015
C        2.85012669       0.53737209       0.02428571      -0.00000017       0.00000010       0.00000015
C        4.25895425      -0.04143703       0.02428573      -0.00000018       0.00000021      -0.00000018
H        0.19544333       0.66518640       0.90520256       0.00000004       0.00000009      -0.00000005
H       -0.39669811      -0.74284974       0.02428566      -0.00000016      -0.00000003       0.00000005
H        0.19544338       0.66518649      -0.85663104      -0.00000005       0.00000012       0.00000011
H        1.90500036      -1.18094486       0.89923706      -0.00000005       0.00000006      -0.00000004
H        1.90500032      -1.18094483      -0.85066568       0.00000002       0.00000001      -0.00000004
H        2.71499964       1.18094486       0.89923706       0.00000006      -0.00000007      -0.00000004
H        2.71499969       1.18094483      -0.85066568      -0.00000003      -0.00000001      -0.00000004
H        5.01669811       0.74284974       0.02428566       0.00000016       0.00000003       0.00000005
H        4.42455667      -0.66518640       0.90520256      -0.00000005      -0.00000009      -0.00000005
H        4.42455662      -0.66518649      -0.85663104       0.00000006      -0.00000012       0.00000011
