8
Properties=species:S:1:pos:R:3 Coordinates=T from=T ORCA-job=T job=T charge=0.0 spin=1.0 pbc="F F F"
B        0.00004731      -0.00000004       0.03897528
N       -0.00000163      -0.00000003       1.68490349
H        0.94758930       0.00000153       2.04977641
H       -0.47380351       0.82061311       2.04971973
H       -0.47380097      -0.82061461       2.04971979
H       -1.16574294       0.00000127      -0.26950275
H        0.58285823       1.00950814      -0.26959745
H        0.58285619      -1.00950937      -0.26959749
