8
Properties=species:S:1:pos:R:3:forces:R:3:energies:R:1 Coordinates=T from=T ORCA-job=T job=T charge=0.0 spin=1.0 energy=-2263.536612307521 stress="2.439308509798848e-11 2.7912889176108456e-14 1.402851132862508e-11 2.7912889176108456e-14 4.1648685579397836e-11 -1.945231660842981e-15 1.402851132862508e-11 -1.945231660842981e-15 2.8765745261684985e-11" free_energy=-2263.536612307521 pbc="F F F"
B        0.00000234      -0.00000000       0.03381733      -0.00000927      -0.00000000       0.00001321    -678.10736602
N        0.00000748      -0.00000000       1.69139989      -0.00000572       0.00000001       0.00003744   -1490.25835073
H        0.94727734       0.00000133       2.05440064      -0.00001732      -0.00000028      -0.00005091     -16.13625958
H       -0.47363780       0.82036398       2.05437627       0.00000961      -0.00001253       0.00000405     -16.13625913
H       -0.47363549      -0.82036531       2.05437629       0.00000913       0.00001280       0.00000401     -16.13625913
H       -1.16737683       0.00000109      -0.27463967       0.00000080      -0.00000021      -0.00002616     -15.49524492
H        0.58368343       1.01097620      -0.27466686       0.00000618      -0.00000546       0.00000916     -15.49524579
H        0.58368154      -1.01097729      -0.27466688       0.00000659       0.00000568       0.00000920     -15.49524579
