10
Properties=species:S:1:pos:R:3:forces:R:3:energies:R:1 Converted=T from=T SDF=T charge=0.0 spin=1.0 energy=-7740.568256768529 stress="5.5352295052707504e-11 -5.1715674709747255e-11 -5.311220417380521e-11 -5.1715674709747255e-11 1.3493362389582212e-10 2.1223228119323015e-11 -5.311220417380521e-11 2.1223228119323015e-11 6.191534859493931e-11" free_energy=-7740.568256768529 pbc="F F F"
O       -1.64195563       0.70023741      -0.00007765       0.00003041      -0.00004053      -0.00001288   -2047.86542874
O       -0.61717674      -1.29237466      -0.01362274      -0.00002351       0.00007256      -0.00001306   -2047.80107598
N        1.94818369      -0.05254068      -0.00336180      -0.00003395       0.00000219       0.00001460   -1490.27178108
C        0.72809558       0.71949043       0.00144530       0.00000793       0.00000111      -0.00000005   -1037.13759705
C       -0.55102822      -0.09296314      -0.00507352       0.00001203      -0.00002952       0.00000495   -1037.10140348
H        0.69829944       1.38477800      -0.86399547      -0.00001829      -0.00000671       0.00000487     -16.14564645
H        0.69729740       1.37236310       0.87625640       0.00002260      -0.00000773      -0.00002003     -16.14564517
H        1.97597326      -0.65576620      -0.81631706      -0.00000779       0.00001789       0.00003510     -16.15787222
H        1.97501942      -0.66733193       0.80091445       0.00001842      -0.00000800      -0.00002031     -16.15787359
H       -2.41540819       0.11710766      -0.00466792      -0.00000784      -0.00000126       0.00000680     -16.15407580
