3
Properties=species:S:1:pos:R:3:forces:R:3 Water=T molecule=T charge=0.0 spin=1.0 energy=-2079.8661957042827 free_energy=-2079.8661957042827 stress="0.0 0.0 0.0 0.0 6.069319180632695e-11 0.0 0.0 0.0 -2.6288994414369192e-11" pbc="F F F"
O        0.00000000       0.00000000       0.11812505       0.00000000       0.00000000       0.00000664
H        0.00000000       0.76267832      -0.46756253       0.00000000      -0.00000588      -0.00000332
H        0.00000000      -0.76267832      -0.46756253       0.00000000       0.00000588      -0.00000332
