4
Properties=species:S:1:pos:R:3:forces:R:3 Ammonia=T (NH3)=T charge=0.0 spin=1.0 energy=-1538.8136603218463 free_energy=-1538.8136603218463 stress="1.5064946522498023e-11 -4.383159240629851e-22 3.561302117632392e-23 -4.383159240629851e-22 -1.4757648417525623e-11 3.844641800332149e-11 3.561302117632392e-23 3.844641800332149e-11 5.2519928416191195e-11" pbc="F F F"
N        0.00000000      -0.00023106       0.10839457      -0.00000000      -0.00002017      -0.00002756
H       -0.00000000       0.94019276      -0.26752690       0.00000000       0.00000879       0.00000381
H        0.81445247      -0.47048085      -0.26743384      -0.00000182       0.00000569       0.00001187
H       -0.81445247      -0.47048085      -0.26743384       0.00000182       0.00000569       0.00001187
